*HEADING
Winding-first COPV layup exported from the staged JAX verification workflow
** Exported from copv-optimizer-fw
** Surface shell extracted from the outer boundary of the tetrahedral COPV mesh.
*NODE
1, 100.00000000, -0.00000000, 110.00000000
2, 100.00000000, -0.00000000, -110.00000000
3, 10.00000000, -0.00000000, 209.49874371
4, 10.00000000, -0.00000000, -209.49874371
5, 96.29172873, 26.97967712, 110.00000000
6, 85.44194045, 51.95839500, 110.00000000
7, 68.25531432, 73.08359643, 110.00000000
8, 46.00650377, 88.78852184, 110.00000000
9, 20.34560131, 97.90840877, 110.00000000
10, -6.82424134, 99.76687692, 110.00000000
11, -33.48796122, 94.22609221, 110.00000000
12, -57.66803221, 81.69698930, 110.00000000
13, -77.57112907, 63.10879443, 110.00000000
14, -91.72113015, 39.84010898, 110.00000000
15, -99.06859460, 13.61666491, 110.00000000
16, -99.06859460, -13.61666491, 110.00000000
17, -91.72113015, -39.84010898, 110.00000000
18, -77.57112907, -63.10879443, 110.00000000
19, -57.66803221, -81.69698930, 110.00000000
20, -33.48796122, -94.22609221, 110.00000000
21, -6.82424134, -99.76687692, 110.00000000
22, 20.34560131, -97.90840877, 110.00000000
23, 46.00650377, -88.78852184, 110.00000000
24, 68.25531432, -73.08359643, 110.00000000
25, 85.44194045, -51.95839500, 110.00000000
26, 96.29172873, -26.97967712, 110.00000000
27, 100.00000000, -0.00000000, -82.50000000
28, 100.00000000, -0.00000000, -55.00000000
29, 100.00000000, -0.00000000, -27.50000000
30, 100.00000000, -0.00000000, 0.00000000
31, 100.00000000, -0.00000000, 27.50000000
32, 100.00000000, -0.00000000, 55.00000000
33, 100.00000000, -0.00000000, 82.50000000
34, 96.29172873, 26.97967712, -110.00000000
35, 85.44194045, 51.95839500, -110.00000000
36, 68.25531432, 73.08359643, -110.00000000
37, 46.00650377, 88.78852184, -110.00000000
38, 20.34560131, 97.90840877, -110.00000000
39, -6.82424134, 99.76687692, -110.00000000
40, -33.48796122, 94.22609221, -110.00000000
41, -57.66803221, 81.69698930, -110.00000000
42, -77.57112907, 63.10879443, -110.00000000
43, -91.72113015, 39.84010898, -110.00000000
44, -99.06859460, 13.61666491, -110.00000000
45, -99.06859460, -13.61666491, -110.00000000
46, -91.72113015, -39.84010898, -110.00000000
47, -77.57112907, -63.10879443, -110.00000000
48, -57.66803221, -81.69698930, -110.00000000
49, -33.48796122, -94.22609221, -110.00000000
50, -6.82424134, -99.76687692, -110.00000000
51, 20.34560131, -97.90840877, -110.00000000
52, 46.00650377, -88.78852184, -110.00000000
53, 68.25531432, -73.08359643, -110.00000000
54, 85.44194045, -51.95839500, -110.00000000
55, 96.29172873, -26.97967712, -110.00000000
56, 96.50402412, -0.00000000, 136.21017604
57, 86.26053344, -0.00000000, 160.58774922
58, 71.70548657, -0.00000000, 179.70167284
59, 58.41727928, -0.00000000, 191.16293170
60, 47.65523500, -0.00000000, 197.91460958
61, 39.37220559, -0.00000000, 201.92295376
62, 33.16936712, -0.00000000, 204.33871467
63, 28.58803423, -0.00000000, 205.82653233
64, 24.90604077, -0.00000000, 206.84879521
65, 21.21986819, -0.00000000, 207.72265446
66, 17.50324191, -0.00000000, 208.45626706
67, 13.76149586, -0.00000000, 209.04858016
68, 9.23879533, 3.82683432, 209.49874371
69, 7.07106781, 7.07106781, 209.49874371
70, 3.82683432, 9.23879533, 209.49874371
71, 0.00000000, 10.00000000, 209.49874371
72, -3.82683432, 9.23879533, 209.49874371
73, -7.07106781, 7.07106781, 209.49874371
74, -9.23879533, 3.82683432, 209.49874371
75, -10.00000000, 0.00000000, 209.49874371
76, -9.23879533, -3.82683432, 209.49874371
77, -7.07106781, -7.07106781, 209.49874371
78, -3.82683432, -9.23879533, 209.49874371
79, -0.00000000, -10.00000000, 209.49874371
80, 3.82683432, -9.23879533, 209.49874371
81, 7.07106781, -7.07106781, 209.49874371
82, 9.23879533, -3.82683432, 209.49874371
83, 13.76149586, -0.00000000, -209.04858016
84, 17.50324191, -0.00000000, -208.45626706
85, 21.21986819, -0.00000000, -207.72265446
86, 24.90604077, -0.00000000, -206.84879521
87, 28.58803423, -0.00000000, -205.82653233
88, 33.16936712, -0.00000000, -204.33871467
89, 39.37220559, -0.00000000, -201.92295376
90, 47.65523500, -0.00000000, -197.91460958
91, 58.41727928, -0.00000000, -191.16293170
92, 71.70548657, -0.00000000, -179.70167284
93, 86.26053344, -0.00000000, -160.58774922
94, 96.50402412, -0.00000000, -136.21017604
95, 9.23879533, 3.82683432, -209.49874371
96, 7.07106781, 7.07106781, -209.49874371
97, 3.82683432, 9.23879533, -209.49874371
98, 0.00000000, 10.00000000, -209.49874371
99, -3.82683432, 9.23879533, -209.49874371
100, -7.07106781, 7.07106781, -209.49874371
101, -9.23879533, 3.82683432, -209.49874371
102, -10.00000000, 0.00000000, -209.49874371
103, -9.23879533, -3.82683432, -209.49874371
104, -7.07106781, -7.07106781, -209.49874371
105, -3.82683432, -9.23879533, -209.49874371
106, -0.00000000, -10.00000000, -209.49874371
107, 3.82683432, -9.23879533, -209.49874371
108, 7.07106781, -7.07106781, -209.49874371
109, 9.23879533, -3.82683432, -209.49874371
110, -20.35893605, -97.90563683, -86.44876102
111, -96.29172873, -26.97967712, 86.43364318
112, -85.44194045, 51.95839500, 86.43364318
113, 33.48796122, 94.22609221, 86.43364318
114, 33.48796122, -94.22609221, 86.43364318
115, -46.00650377, 88.78852184, -86.43364318
116, -46.00650377, -88.78852184, 86.43364318
117, -85.42164502, -51.99175476, -86.46485497
118, -96.29172873, 26.97967712, -86.43364318
119, 33.48796122, 94.22609221, -86.43364318
120, 97.16406250, -23.64624618, -13.75000000
121, 97.16406250, 23.64624618, -13.75000000
122, 57.66803221, -81.69698930, -86.43364318
123, 97.16406250, -23.64624618, 41.25000000
124, 97.80720153, 20.82669752, 38.39550364
125, -46.00650377, 88.78852184, 86.43364318
126, 77.57112907, 63.10879443, -86.43364318
127, 75.36830039, 65.72381072, 86.47227330
128, 77.57112907, -63.10879443, 86.43364318
129, 97.16406250, -23.64624618, -68.75000000
130, 96.29386767, 26.97204199, -69.10890348
131, 97.16698161, -23.63424813, -41.22876456
132, 88.84591103, -45.89557815, -27.49782578
133, 88.83951219, -45.90796307, -0.08617979
134, 75.53159508, -65.53608277, -13.80157064
135, 75.51980433, -65.54966936, 13.56549759
136, 57.99806038, -81.46302837, -0.12807796
137, 57.98104312, -81.47514123, 27.19751327
138, 37.23506024, -92.80921446, 13.51585461
139, 37.13121904, -92.85080814, -13.95733178
140, 14.41969184, -98.95490128, -0.14735347
141, 14.40544269, -98.95697662, 27.13542354
142, -9.19354813, -99.57649659, 13.48227514
143, -9.18603930, -99.57718957, -13.77965366
144, -32.27389895, -94.64880056, -0.15838814
145, -32.38951218, -94.60929923, -28.23205701
146, -53.55035022, -84.45330065, -13.78895462
147, -53.55664674, -84.44930781, 13.46091306
148, -71.84979567, -69.55290693, -0.16956540
149, -71.89862540, -69.50242921, 27.36739870
150, -86.14676230, -50.78124994, 13.44428717
151, -86.14126677, -50.79057156, -13.79742759
152, -95.64419155, -29.19226991, -0.18350637
153, -95.64239268, -29.19816299, -27.42288874
154, -99.82112770, -5.97850014, -13.80949071
155, -99.82158953, -5.97078414, 13.42842478
156, -98.44400111, 17.57209852, -0.19602457
157, -98.44254432, 17.58025790, 27.03888844
158, -91.58813887, 40.14489780, 13.41410412
159, -91.59256841, 40.13479055, -13.82102770
160, -79.64115791, 60.47549890, -0.21053085
161, -79.64587752, 60.46928307, -27.44438132
162, -63.26170534, 77.44647596, -13.83411373
163, -63.25801967, 77.44948642, 13.39994521
164, -43.36134847, 90.10989657, -0.22226324
165, -53.54564564, -84.45628356, -41.03654449
166, -43.50749094, 90.03942599, 27.47927257
167, -20.74453974, 97.82465983, 13.89674136
168, -20.80927431, 97.81090994, -14.24339276
169, 2.42833697, 99.97051155, -0.23694380
170, 4.67953545, 99.89044973, 27.11011297
171, 26.67474446, 96.37664659, 12.97971025
172, 25.88854852, 96.59080213, -13.93830580
173, 47.97670693, 87.73958965, -0.36126851
174, 47.98365681, 87.73578905, 26.87112486
175, 47.77775620, 87.84808486, -27.57916194
176, 67.07997434, 74.16385266, 13.35983615
177, -9.20362193, -99.57556600, 40.74015941
178, -63.25194313, 77.45444913, 40.63404134
179, -99.82112739, -5.97850544, -41.04646288
180, -86.15111566, -50.77386406, 40.68563237
181, -9.18383171, -99.57739319, -41.03398436
182, 75.54486958, -65.52078052, -41.17891122
183, -99.82214160, -5.96154731, 40.66441679
184, -63.27084527, 77.43900915, -41.06695167
185, 25.77458952, 96.62127372, -41.18364931
186, -79.64967661, 60.46427884, -54.67882744
187, -98.44100356, 17.58888336, 54.27417933
188, 67.26881983, 73.99260692, 40.45103982
189, -53.56663729, -84.44297111, 40.70325052
190, -85.26646621, -52.24585859, -41.55063596
191, 75.29763447, -65.80475851, 40.51083333
192, 57.83859555, -81.57632539, 54.28314263
193, 82.61158925, 56.35002504, 27.00555026
194, 81.74195494, 57.60427764, -2.55726651
195, 47.42318782, 88.03999805, -58.11375325
196, 67.01192948, 74.22534141, -41.22430776
197, 18.05430862, -98.35670765, 58.04658554
198, -6.88008972, -99.76304108, 65.99615623
199, 48.74936724, 87.31265197, 57.55490492
200, 82.62407679, 56.33171340, 54.34883107
201, -42.83200404, 90.36271039, 54.46823740
202, 93.55551092, 35.31807435, 13.32137643
203, 87.66543429, 48.11207364, -29.25270398
204, -63.24575790, 77.45949979, 67.86781052
205, -22.58277949, 97.41672377, 72.49145239
206, -80.01946712, 59.97403506, 53.55258601
207, -99.82269828, -5.95221877, 67.89920933
208, -98.76046528, 15.69619374, 80.77523906
209, -19.32699063, 98.11456280, 44.30397389
210, 4.55553488, 99.89618162, 54.30684059
211, 4.52848217, 99.89741162, 83.02742519
212, 97.15250856, -23.69367172, 13.66592899
213, 88.84488663, -45.89756116, -54.91948015
214, 75.52956480, -65.53842263, -68.55624885
215, 57.51038847, -81.80803883, -55.34922539
216, 33.38620266, -94.26219535, -70.65872795
217, 36.19531320, -93.21962938, -42.77567075
218, 12.89940344, -99.16453696, -57.18369661
219, 57.90867389, -81.52659375, -27.68473125
220, 96.84674929, 24.91399511, -41.01668046
221, -63.27613255, 77.43468893, -68.30221523
222, -43.04274539, 90.26251752, -54.82776500
223, -20.11415972, 97.95621766, -72.72428919
224, -20.19755993, 97.93905540, -45.22801391
225, 2.58379212, 99.96661452, -62.45683739
226, -78.65128223, 61.75739473, -81.15359590
227, 2.41174355, 99.97091324, -27.52559394
228, 97.16406250, -23.64624618, 68.75000000
229, 98.08337937, 19.48462705, 68.43502751
230, 37.71024019, -92.61715708, 40.68364474
231, 86.78722951, -49.67873584, 58.43650929
232, 88.52904621, -46.50384905, 27.70452373
233, 14.18316694, -98.98907907, -27.48102683
234, -32.27974303, -94.64680761, 27.08692590
235, -32.95093234, -94.41523213, 57.95943622
236, -71.05810263, -70.36153815, -26.60145026
237, -98.44479970, 17.56762398, -27.42473054
238, -98.34036282, 18.14312655, -53.94412623
239, -99.82112899, -5.97847867, -68.28253281
240, -95.94050259, -28.20319066, -54.39884532
241, -95.64751455, -29.18138038, 27.05520716
242, -43.66442268, 89.96342697, -27.76980287
243, -91.64825785, 40.00745972, 40.35647084
244, -91.53988923, 40.25479698, -40.76925153
245, -79.63540584, 60.48307314, 27.02401326
246, -95.65352681, -29.16166678, 54.27804207
247, -85.50619547, -51.85258466, 71.64839326
248, -72.29538346, -69.08963403, 57.25642595
249, 66.52183494, 74.66488784, -13.80089436
250, -46.00650377, -88.78852184, -86.43364318
251, -33.48796122, -94.22609221, -62.86630171
252, -96.29172873, -26.97967712, -86.43364318
253, 6.82424134, -99.76687692, -86.43364318
254, 57.66803221, 81.69698930, 86.43364318
255, 57.66803221, 81.69698930, -86.43364318
256, -68.25531432, -73.08359643, -86.43364318
257, 57.67350272, -81.69312752, 86.24178372
258, -68.25531432, -73.08359643, 86.43364318
259, -77.57112907, -63.10879443, -63.32459625
260, 90.45108436, -42.64506229, -83.97365892
261, 6.82424134, 99.76687692, -88.02071251
262, 89.58842294, 44.42875730, -54.96696679
263, 6.83804248, -99.76593194, 87.19473361
264, 88.32448336, 46.89121069, 86.80187738
265, 91.21688026, 40.98146844, -87.14208826
266, 91.21688026, -40.98146844, 87.14208826
267, -92.54760635, 37.88060927, -67.41525334
268, -90.69660189, 42.12037993, 67.02248770
269, 26.78707314, 96.34548621, 39.26032759
270, -58.43085483, -81.15315892, -64.83217367
271, 66.73809681, 74.47164853, 63.93785694
272, 69.71159741, 71.69583800, -66.08458981
273, -19.94174550, -97.99146282, 87.74436079
274, -9.02957271, -99.59149972, -65.17499119
275, -54.57297228, -83.79612578, 64.12253601
276, -68.42825311, 72.92169894, 89.13764421
277, -99.99958692, 0.28742798, -89.36318847
278, 25.62264397, 96.66167863, -64.55191700
279, 39.01339469, -92.07581135, 63.57470074
280, 26.67010209, 96.37793137, 61.86765646
281, 73.81466384, -67.46403043, 63.94974072
282, 77.24368713, -63.50915524, -91.27255997
283, -99.85416687, -5.39864423, 89.75923830
284, 33.48796122, -94.22609221, -92.35672624
285, -64.02121163, 76.81981815, -89.85094843
286, -85.44194045, -51.95839500, 93.39655475
287, -20.34560131, 97.90840877, 93.68940086
288, 97.97638839, 20.01567683, 89.80971511
289, 97.48836450, -22.27147924, -88.17378505
290, 97.97854139, 20.00513500, -89.82029653
291, 97.97854139, -20.00513500, 89.82029653
292, -88.10130897, -47.30918894, -66.07466964
293, -20.34560131, 97.90840877, -93.81918004
294, -68.83984814, -72.53327035, -47.41437669
295, 98.80450227, 15.41656026, 13.58649761
296, 92.39554352, 38.25001356, 54.99627462
297, 78.74953586, 61.63205823, -52.43592276
298, -89.20385486, 45.19593209, -90.57974888
299, -93.84859263, 34.53174861, 90.72317711
300, -76.73409403, 64.12393323, 73.48655205
301, 90.76990549, 41.96217651, -10.89353894
302, -99.02819098, 13.90745814, -73.08475414
303, 85.31842348, 52.16096830, -72.32496605
304, 76.71439415, 64.14749980, -27.59567796
305, 90.86045721, 41.76574332, 35.38922530
306, 7.61663079, -11.31621305, 209.06528281
307, 7.63890583, 11.29896490, 209.06553644
308, 53.01895674, -9.27498106, 194.27908965
309, 2.51036913, -13.45692404, 209.05861518
310, 52.90411781, 9.48254176, 194.32814311
311, 2.61590330, 13.39023864, 209.06492093
312, 6.25502155, -15.10095787, 208.65513558
313, 6.25502155, 15.10095787, 208.65513558
314, 31.00067219, -3.77137728, 204.99860545
315, 31.12292464, 3.82510822, 204.95647481
316, -10.94768668, 7.31501038, 209.12940421
317, -11.67897082, -7.74656968, 209.01309155
318, -19.77531961, 95.16406259, 133.51037909
319, -2.56869005, 12.91367693, 209.12940421
320, -21.04915823, -95.20805121, 132.18918482
321, -2.56869005, -12.91367693, 209.12940421
322, -97.08502169, -2.61813043, 133.82527978
323, 19.35460587, -3.28059994, 208.05425486
324, 20.23666849, 3.54426407, 207.86682503
325, 56.35760737, 79.65671334, 131.87757098
326, 59.72296234, -77.28617202, 131.44796923
327, -84.14254771, 50.19559411, 130.01084697
328, -83.95649794, -49.59094272, 132.18208408
329, -0.02796277, -16.71987838, 208.59231656
330, -4.06593061, -16.65997175, 208.51859494
331, -0.00917213, 16.79834135, 208.57898175
332, -4.08050697, 16.85239881, 208.48525838
333, 78.26271646, 17.97883031, 169.59621526
334, 79.30081943, -18.53890452, 168.03179350
335, 10.94768668, -7.31501038, 209.12940421
336, 11.83714618, -11.82833643, 208.58992052
337, 10.94768668, 7.31501038, 209.12940421
338, 11.48662986, 11.48662986, 208.67175213
339, -7.31501038, 10.94768668, 209.12940421
340, -7.31501038, -10.94768668, 209.12940421
341, 14.75409642, -9.04412976, 208.49121969
342, 15.36499832, -12.99365112, 207.95448870
343, 18.29632519, -10.33089941, 207.76766849
344, 18.85847082, -14.24631311, 207.16687008
345, 15.75136302, -16.76119754, 207.31884103
346, 19.39565044, -18.13716974, 206.40981183
347, -1.77823481, -20.31037831, 207.89957310
348, 23.22777271, -15.32408494, 206.05021080
349, 24.29617952, -20.43528085, 204.82665742
350, 20.01061383, -23.69016126, 205.07024557
351, 25.60543939, -25.68658892, 203.19099003
352, 19.90317897, -30.76741644, 203.04423439
353, 27.56831255, -32.56067447, 200.44219491
354, 21.38132474, -38.67079303, 199.70735042
355, 30.30229505, -41.02662054, 196.01504125
356, 23.24439852, -48.25818519, 194.44433373
357, -5.73343442, -20.41334649, 207.72626574
358, -2.89697659, -22.82279824, 207.31766236
359, 30.02146638, -19.77968257, 203.31385596
360, -11.79041376, -11.81112164, 208.59758389
361, -7.24362354, -25.04712507, 206.54103502
362, 0.55110818, -23.10092173, 207.29359534
363, -1.53179175, -26.70022228, 206.35741666
364, 32.50164289, -49.76683018, 190.41707420
365, 23.73147428, -57.14989020, 188.55384891
366, 13.01732350, -53.88067143, 193.23113922
367, 14.05452152, -64.21543639, 185.35813263
368, 2.51942428, -60.58400052, 189.51874862
369, 40.93690307, -41.71166773, 191.14374124
370, 42.92616482, -51.40468794, 184.26238908
371, 26.31831431, -67.70972355, 178.72219197
372, 2.90110146, -71.62418475, 179.72488630
373, -8.80795471, -66.83266163, 183.86349080
374, -9.75945628, -56.15201506, 192.16875451
375, -20.23187348, -60.32419431, 187.14702117
376, -20.80400200, -50.12523343, 193.99199054
377, -15.09992880, -9.24925168, 208.41973122
378, -15.30992567, -12.83574477, 207.98392640
379, -30.83700151, -53.96045784, 188.34123006
380, -18.58954458, -10.37276050, 207.70790486
381, -18.13618360, -6.56851208, 208.12203368
382, -21.61182989, -7.74089993, 207.32937520
383, -20.94198148, -3.74392596, 207.71088184
384, -18.99901610, -14.14441165, 207.15437719
385, -30.49453677, -42.98055387, 194.98679436
386, -40.85210123, -47.06949403, 188.20210072
387, -41.06702052, -36.46569197, 193.56885266
388, -24.36814626, -5.04810882, 206.85406571
389, -23.67684106, -1.11943684, 207.15016242
390, -50.41334778, -39.57875056, 186.75947414
391, -11.39645308, 11.37245723, 208.69543087
392, -50.42324517, -28.68975415, 191.45179159
393, -41.39630193, -57.83968951, 180.29165316
394, -59.75246321, -31.46804444, 183.75232416
395, -58.29090391, -18.31558535, 189.16255336
396, -19.44976335, -71.37775098, 177.28241502
397, -69.25667653, -22.15874833, 178.64767024
398, -67.01645825, -9.15319974, 183.65468932
399, -12.99196865, 3.39593853, 209.09428012
400, -57.12015969, -6.08325619, 191.85524633
401, -63.99501085, 3.28755748, 186.77128729
402, -14.64847179, 7.02249019, 208.67171279
403, -15.82886564, 11.78364653, 208.03363039
404, -54.22464951, 6.02991141, 193.80529550
405, -60.21886051, 15.07069232, 188.40001959
406, -50.39811038, 17.71346524, 194.53557606
407, -55.81314420, 26.35429089, 188.67874100
408, -45.82349816, 28.87117048, 194.06344349
409, -50.75861500, 37.29179808, 187.67164733
410, -39.89402616, 39.47654471, 192.76514420
411, -44.96650162, 47.99838222, 185.32708037
412, -33.34009722, 49.94675325, 189.96098897
413, -74.18433111, 1.35722084, 177.04359007
414, -28.33309533, 40.95966447, 196.71529044
415, -22.09521260, 50.89399549, 193.19617060
416, -26.39063878, 59.05197621, 186.26531512
417, -14.30412125, 59.20082694, 189.31364451
418, -10.07726017, 49.82136524, 196.11782854
419, -2.50655360, 58.24827022, 191.24565346
420, 1.29828065, 50.69953261, 196.18510231
421, 8.98934318, 56.55589636, 191.97940166
422, 12.04471272, 47.15355432, 197.35826927
423, 19.92615106, 53.62423940, 192.02066479
424, 16.35540014, 64.18140881, 184.92161003
425, -1.76953841, 20.11314092, 207.94044260
426, -5.76805307, 20.39614255, 207.72782067
427, 28.76126831, 60.35944150, 184.36079120
428, 23.87326898, 43.94868752, 196.59434100
429, 24.12733679, 70.88321992, 176.28303519
430, -3.43272373, 23.43594252, 207.15437719
431, 0.55110818, 23.10092173, 207.29359534
432, -7.41051470, 23.73933677, 206.85828907
433, -9.74629340, 20.58954846, 207.37083885
434, 8.11029881, 73.59716223, 177.21369477
435, 18.25444856, 81.06469851, 165.63532838
436, -65.07601821, 23.79057144, 182.10492746
437, -56.88648424, 45.85323468, 178.27451047
438, -49.60108336, 57.99608636, 174.62342065
439, -20.24474676, 0.08680817, 207.92927393
440, -22.95031516, 2.81153745, 207.29017572
441, -26.61335319, 1.48576540, 206.38216605
442, -59.53440049, -45.25792055, 176.38806960
443, -11.66999485, 24.00152387, 206.37291151
444, -13.66487325, 20.75985795, 206.86227097
445, 2.85369850, -26.26057325, 206.44811402
446, 0.97094306, -31.84362201, 204.78945620
447, -4.47529045, -31.36194253, 204.84935601
448, -11.14723897, -29.54924701, 204.88193223
449, -0.72313353, -36.83406692, 202.96627664
450, -15.94512608, -16.72451074, 207.29359534
451, -20.00222131, -18.05345538, 206.30152590
452, -25.30092883, -9.31482578, 206.29692114
453, -29.09139366, -6.06166814, 205.48270521
454, -29.63590622, -11.26380272, 204.84112932
455, -18.83862546, 69.31557313, 179.57339658
456, 43.45706212, -6.86573567, 199.80170057
457, -34.66574892, -7.09965148, 203.53010639
458, 17.42354383, 38.36768384, 200.68815224
459, 26.63841974, 35.38729905, 199.65563931
460, 33.16697805, 40.46550323, 195.22027115
461, 20.34371603, 29.49725554, 203.35976186
462, 28.17829770, 26.67066450, 202.16647543
463, 14.62656645, 8.91878031, 208.52166722
464, 15.19942487, 12.85790886, 207.99822276
465, -40.01929539, 20.40357627, 199.34287925
466, 37.87254772, 65.91309239, 174.97025766
467, -5.49265399, 28.22872673, 205.77562184
468, -25.86699404, 5.41501982, 206.44467937
469, -30.19864132, 4.59317999, 205.22050598
470, 1.66554633, 83.57908245, 164.87953109
471, -35.18403207, -14.18465205, 202.52502112
472, -15.79171459, 24.92971825, 205.54648554
473, -12.06146909, 28.59523992, 205.06225969
474, -19.25979388, 28.95766333, 203.75774141
475, -19.10175452, 21.28699560, 205.82268412
476, -30.15483383, 11.22038624, 204.68256930
477, -25.00372900, 23.72496101, 203.87193277
478, 18.29632519, 10.33089941, 207.76766849
479, 18.85847082, 14.24631311, 207.16687008
480, 15.75136302, 16.76119754, 207.31884103
481, 21.93853845, 11.71258468, 206.85822573
482, 45.24547381, -17.00431145, 197.54256389
483, 54.71988559, -20.04034881, 191.26572796
484, 11.32236317, 89.49696417, 153.15202772
485, -35.64199144, 6.86811939, 203.17981210
486, -8.04511184, 34.15313514, 203.64208207
487, -0.97760385, 31.97764585, 204.74425817
488, 4.59561166, -22.97924070, 207.21540439
489, 7.88121657, -28.23013347, 205.60829457
490, 8.60525241, -22.72864457, 207.00184713
491, -31.53415921, -32.09450783, 199.30587534
492, 51.77534496, -41.41338107, 184.86150895
493, 54.19141498, -52.95716181, 175.25970852
494, -22.18442136, 6.73749993, 207.27516406
495, -61.60823818, 53.88549234, 167.45240381
496, -52.68481655, 66.73454189, 162.63849376
497, 14.52147807, -5.19823441, 208.80336550
498, 88.29341905, 41.12634713, 132.64720124
499, 89.02138441, -39.67779690, 132.38002572
500, 22.48452724, 15.61670733, 206.17985489
501, 26.15517985, 13.73598291, 205.53653406
502, -9.77663902, -20.73718319, 207.33646060
503, -16.80677665, -20.95963007, 206.32354938
504, -20.92333304, -22.89780475, 205.06789507
505, -11.44869774, -24.37831596, 206.30485466
506, 42.10536943, 53.45743657, 183.27646512
507, 51.61864527, 59.29120812, 171.80669948
508, 55.72366279, 45.73875237, 179.30252475
509, 66.67451955, 50.94244623, 164.40014353
510, 29.06774530, -12.67486909, 204.83888378
511, -42.28089801, -9.81710367, 200.08856830
512, 12.39851219, 30.85870589, 204.30809703
513, 8.90027744, 38.80596185, 201.73266804
514, -40.03321597, 69.30784491, 169.94801292
515, -41.25950022, 78.41794428, 156.34953783
516, -14.24849628, -0.08833651, 208.97965726
517, -58.67061112, 72.89529392, 145.27088764
518, 63.94718670, -39.08860174, 176.20300996
519, 66.78584682, -52.38835430, 162.86880932
520, 53.78599351, -64.79891484, 163.92742843
521, -11.53842884, -45.06585883, 198.52080562
522, 13.45356017, -37.33283689, 201.78922055
523, -41.13279207, -26.95429925, 197.07214921
524, -8.90533189, -14.65542611, 208.51859494
525, 29.23426070, 85.85133438, 152.12963786
526, -26.09215619, 77.40302268, 167.68857309
527, -7.44465887, 91.23725369, 150.25345443
528, 14.65464352, 5.17829207, 208.78474940
529, -12.00528375, 17.30410808, 207.75705093
530, 25.37166581, 8.54789171, 206.34942720
531, 29.64547690, 10.45770365, 204.93040679
532, 30.29168783, 15.80804752, 203.98148372
533, 43.45706212, 6.86573567, 199.80170057
534, 47.00862393, 17.04248932, 196.60105561
535, 55.19022673, 20.06184153, 190.94171600
536, 48.56941435, 28.13741512, 192.76048490
537, 34.59068309, 12.35247382, 203.01022005
538, 35.40567852, 18.85785295, 201.60141544
539, -68.89274499, 40.79094065, 169.91568116
540, -20.75200348, -42.42642929, 198.14393030
541, 11.81004815, -26.41530308, 205.72227811
542, 12.58085210, -22.06642702, 206.72018899
543, 10.05731157, -18.62554782, 207.73402403
544, 46.83747733, 70.73283260, 162.94447194
545, -0.44715802, -50.06590284, 196.56330298
546, -35.80309916, 30.84232735, 198.12995481
547, -28.88267553, -18.54259689, 203.92530625
548, -3.31215702, 39.04989357, 202.00073602
549, -11.40403785, 40.93705006, 200.52130055
550, -44.00768178, 8.90614090, 199.35325735
551, -22.35298612, -30.20530964, 202.67137250
552, 15.11244946, 24.25665564, 205.82916325
553, 7.78444192, 26.89181280, 206.00121285
554, 10.42960937, 21.17426657, 207.17444975
555, -48.45659759, -18.96035424, 195.39591979
556, 3.32477341, 97.28347622, 132.91006627
557, 47.40733908, -30.28811240, 192.67511384
558, 65.88628681, -64.24259625, 149.13931576
559, -25.75982562, 17.91704309, 204.94951791
560, 75.66958902, -37.95577281, 163.23037299
561, -74.06133519, 48.02849328, 156.99130199
562, -80.47295774, 31.56846814, 160.27459489
563, 36.36881149, -4.75056409, 203.03086419
564, 37.50123657, -11.50069476, 201.98582106
565, 36.87419908, 4.74805769, 202.83183393
566, 90.31934734, 20.05086295, 147.95231734
567, 80.32678762, 37.50888603, 156.26759837
568, 75.88136768, 54.37821886, 145.84727817
569, 90.15028124, -16.19501379, 150.13288329
570, -39.72551783, -1.28787790, 201.76178182
571, -49.07869412, -2.44736008, 197.09358307
572, -94.43185753, 26.07805946, 130.06387546
573, -93.62571488, -27.84764670, 131.41807849
574, -83.79029572, -37.91385789, 149.26481533
575, -72.15485864, -55.07193886, 151.96138612
576, -69.50336229, -68.26345740, 132.56951513
577, -58.14621741, -69.63696873, 152.06792112
578, 9.78667750, -46.58607913, 197.94292566
579, -19.22584407, 15.30673092, 206.93333229
580, 63.51176267, 10.80044371, 186.48271973
581, 65.22590251, 22.55870685, 182.36495276
582, 9.51990195, -14.81660986, 208.43698258
583, -31.90947759, -0.95296995, 204.76748962
584, -8.55668872, -37.43752730, 202.33208883
585, 62.79278086, -11.62372809, 186.95424366
586, 64.31344023, -24.55158371, 182.53275911
587, 26.72107143, 3.87896556, 206.28571009
588, 26.99001193, -3.41892572, 206.22811545
589, -40.83559332, 87.05769756, 137.44834445
590, -30.93266110, 19.22688840, 203.13161246
591, 21.60286999, 22.92148045, 204.91007187
592, 40.18035087, -25.35558181, 197.99223758
593, -89.90217377, 13.76909492, 151.56935381
594, -90.43004313, -5.55478086, 152.32672571
595, -27.03795684, 31.73487861, 200.89469935
596, -20.44570696, 36.95162064, 200.64519181
597, 6.19905338, -19.15807607, 207.95172208
598, 3.07920786, -16.63577515, 208.55845709
599, -12.92023540, -3.82287353, 209.08810804
600, 68.45992201, 35.60531619, 173.60424936
601, 21.36070559, 7.78915083, 207.38094981
602, -16.30947466, 3.27301052, 208.60673627
603, -16.41363566, 18.19109389, 206.95192967
604, -41.74440697, -87.85603800, 133.21036564
605, -27.39280287, -86.84437058, 151.32420173
606, -8.27432862, -90.70086631, 151.29029348
607, 3.33318037, -97.50200762, 131.96015526
608, 12.28954520, -90.49332183, 150.74218678
609, 2.91838139, -82.25215243, 166.79847244
610, 21.14746142, -79.97546559, 166.18460446
611, 31.46465297, -85.19141551, 151.86165712
612, 34.37673553, 31.37577107, 198.50876253
613, -24.75695598, -14.81550790, 205.74755274
614, 16.58590925, -20.93124575, 206.36799555
615, 48.00335833, 40.60203913, 187.76343619
616, -19.25143401, 4.13542579, 208.04223856
617, -17.00809486, -2.39302764, 208.51394890
618, -22.02627039, -11.38917251, 206.87688146
619, 21.08100693, -11.52668365, 207.07073045
620, 21.37507224, -7.58339657, 207.39403669
621, 24.94744809, -9.65607929, 206.35551342
622, 20.76601138, 18.89188777, 205.97848378
623, -1.20482804, 27.46552529, 206.14672802
624, 2.80244797, 27.55900995, 206.08666534
625, 4.58656298, 23.07847395, 207.19232213
626, 3.85414799, 16.51428762, 208.55163036
627, 23.05647475, 3.03384863, 207.25839159
628, 23.00254252, -3.19724151, 207.26592766
629, -8.06304427, 17.16890944, 208.18460096
630, -60.72106859, -57.87277264, 164.43982014
631, -45.53154283, -67.30225302, 168.28623634
632, 17.71695208, 6.39692322, 208.20992303
633, 12.08061528, 15.36152110, 208.07182268
634, 7.02642657, 19.01359723, 207.92401365
635, 31.49277987, 50.50659900, 190.35725402
636, 36.15226863, -33.73023490, 196.92114085
637, 21.94013794, -93.96887789, 136.23890882
638, 37.42486327, 90.06604012, 132.07913101
639, 32.77459674, -8.22670089, 204.11773053
640, 38.31911503, -74.19160980, 165.02045492
641, 57.70294477, 32.17237387, 185.06869204
642, -72.01930482, -43.03515303, 164.41686629
643, -79.32702577, -27.16148612, 164.49290463
644, -76.70951754, -12.22412683, 172.97793774
645, -15.23851301, -82.09346825, 165.03135644
646, 76.65207618, -60.95006487, 130.23731229
647, 62.64253194, 64.61809976, 153.59374238
648, -6.10091633, 67.10781471, 183.88721151
649, 41.59979197, -63.02048327, 175.55818787
650, -18.64819550, 8.71011824, 207.85897325
651, -21.51282987, 10.24103703, 207.12012825
652, -24.68686352, 9.25436454, 206.46198996
653, -16.55000559, -25.85498535, 205.17151384
654, 17.15689628, -6.58609412, 208.29681721
655, 17.40323183, 20.60574421, 206.29398126
656, 2.14355431, 19.87941909, 207.98068112
657, -12.57420584, -15.52659965, 207.98374381
658, -14.21962824, 14.55082394, 207.90850676
659, -9.08663999, 76.35442253, 173.93305196
660, -13.01809799, -19.24829469, 207.26269725
661, -83.22953130, -0.66116656, 165.42930614
662, -80.06911782, 14.66041313, 168.08621746
663, 12.75401563, -15.75803618, 207.92353844
664, -69.87646136, 69.16432048, 128.26408826
665, 49.42963512, -77.16686507, 150.02481865
666, 34.18093365, 77.36557621, 163.35008334
667, -15.90182858, -35.14251148, 202.26123636
668, -37.84236170, 58.12259504, 182.03970854
669, -7.69126448, -75.87155943, 174.68655904
670, -29.91930544, -76.18532940, 167.45111614
671, 28.52258792, -7.16845620, 205.57758741
672, 78.48161096, -49.17211343, 147.71922590
673, -26.75949297, -24.84082694, 203.09598731
674, 25.83666788, 19.48745889, 204.61873778
675, 6.10754772, -33.61414102, 203.98291007
676, -34.19895475, -23.51085576, 200.98170781
677, -70.94616558, 14.59119499, 178.94736121
678, -31.96056987, -65.88731344, 178.09833993
679, 5.56406931, 64.21573066, 186.45509184
680, 55.85876552, -30.83674257, 186.99930923
681, -63.07059257, 34.37442825, 179.57369499
682, -25.20179452, 87.31110913, 151.73295791
683, 5.23082798, 31.42766081, 204.78892643
684, 13.90104598, 20.07108362, 206.97377235
685, -26.92056497, -2.51902524, 206.27532235
686, -49.44585293, -49.33045262, 181.56545307
687, 71.22539858, -14.14725470, 178.75171112
688, 11.05798384, 25.21453757, 206.13505130
689, 25.15518691, -6.20044355, 206.58556347
690, 96.31091037, 19.97660280, 128.03174658
691, -64.70260175, 61.71161349, 154.78001884
692, 9.36109031, 14.16944033, 208.54743502
693, -3.76423770, -42.82327291, 200.28841460
694, -30.30948852, 67.53511321, 177.23349901
695, -36.19792313, 13.73590140, 202.20105951
696, 33.30153653, 7.69540626, 203.97759514
697, -17.59463318, 44.31085742, 197.90322405
698, -6.09235008, 13.70276809, 208.86919347
699, -10.09788342, -17.75144320, 207.89238487
700, -72.48456650, 27.05232308, 173.35739448
701, 13.87312362, -74.26933148, 175.51032623
702, 40.80081842, 23.83396229, 198.13192077
703, 2.20478084, -19.93452964, 207.96812476
704, 32.12917847, -26.14167133, 201.01828888
705, -5.61609929, -13.53820857, 208.92005023
706, 45.33090867, 80.34396545, 148.59994734
707, 95.49750335, -20.27834317, 131.65676921
708, -9.96316179, 14.44225557, 208.44875145
709, 39.34682898, -89.33200983, 131.71679233
710, 72.44000213, 66.12139434, 129.50403295
711, 40.39749621, 14.42195482, 200.33299242
712, 12.13812730, 2.51015529, 209.22885158
713, -31.09659936, 26.09964148, 201.38823897
714, -69.03051639, -34.38162916, 173.66075230
715, 36.32875251, -18.54468445, 201.30343049
716, 3.21074206, -42.13891090, 200.63113882
717, -14.10911242, 34.29886548, 202.86829800
718, 16.63955559, 3.03098714, 208.55931365
719, 12.13998963, -2.51334382, 209.22854304
720, 70.53944777, 13.10981997, 179.65858834
721, -13.01214740, 84.22711565, 162.31134685
722, 33.87508117, -58.46625658, 183.71686182
723, 13.35313763, -18.81684346, 207.30169638
724, -24.31964471, -19.61496266, 204.99372674
725, 71.82961869, -29.03501280, 173.22557956
726, 10.16273236, 18.12656006, 207.81690391
727, 16.18685865, -2.95236660, 208.63705763
728, 20.81650523, 94.23656470, 136.19433113
729, -53.45422679, 82.93518944, 126.26038099
730, 13.13719808, -30.40236208, 204.35629500
731, -40.62525229, -18.49087616, 199.48562105
732, -85.61594870, 37.94069825, 145.07723969
733, 34.31920160, 24.59858424, 200.64823250
734, -13.66256571, -22.08615703, 206.56881467
735, 8.05164180, 22.86346662, 207.01769405
736, 31.03672017, 21.24564190, 202.65713519
737, -7.15112055, -17.40100662, 208.21439021
738, -20.11010445, 12.28048169, 207.18422438
739, 16.06283551, -26.28514689, 205.13714505
740, -44.19607906, -79.32137645, 151.89064137
741, 38.75308631, 9.24301298, 201.72112631
742, 2.68653415, 43.31623559, 200.09154383
743, 29.02953706, 6.81907089, 205.45043871
744, 41.36703508, 35.66196968, 193.76748968
745, 85.65508395, -32.94130123, 149.72502067
746, 23.47739046, 5.72158569, 207.03646528
747, -51.85922369, -56.41686629, 174.24763121
748, -17.23892615, 0.61080192, 208.50099668
749, -50.32604131, -10.14707539, 195.81565374
750, -23.80967737, 12.88138909, 206.26613672
751, 2.85804213, 37.10285333, 202.81815485
752, -55.99791059, -78.30922361, 137.05364130
753, 26.69587895, -17.01166201, 204.85743726
754, -74.41558792, 57.81938511, 143.45502922
755, -24.98820244, -36.69321603, 199.60579019
756, 39.13824058, 45.06680689, 190.23204497
757, 16.45034317, -44.86581337, 197.84329798
758, -4.27317550, 44.91898210, 199.24138624
759, -89.98664203, -21.21437608, 148.10976914
760, -85.08842954, -13.53833621, 160.76093588
761, -15.03532073, -6.17248237, 208.67035822
762, 7.61663079, -11.31621305, -209.06528281
763, 7.63895413, 11.28983137, -209.06657402
764, 52.90411781, 9.48254176, -194.32814311
765, 2.61590330, 13.39023864, -209.06492093
766, 52.90411781, -9.48254176, -194.32814311
767, 2.50662219, -13.44215020, -209.06071594
768, 6.25502155, -15.10095787, -208.65513558
769, 6.25502155, 15.10095787, -208.65513558
770, 31.61285577, -4.05048652, -204.78513021
771, 30.86604818, 3.74019854, -205.04366357
772, -10.94768668, 7.31501038, -209.12940421
773, -11.47865490, -7.62327253, -209.04608118
774, -20.91562659, -95.21159788, -132.29995948
775, -2.56869005, -12.91367693, -209.12940421
776, -19.77531961, 95.16406259, -133.51037909
777, -2.56869005, 12.91367693, -209.12940421
778, -97.07950429, -2.69392996, -133.83930763
779, 19.10795085, -3.43748515, -208.09724721
780, 19.35460587, 3.28059994, -208.05425486
781, 56.37196113, 79.63726008, -131.91138529
782, 58.10169556, -78.06806280, -133.01239978
783, -82.45676870, 51.09428557, -134.29516984
784, -83.95649794, -49.59094272, -132.18208408
785, -0.04474292, -16.65504524, -208.60328324
786, -3.98921334, -16.88595957, -208.48325008
787, -0.00917213, 16.79834135, -208.57898175
788, -4.08050697, 16.85239881, -208.48525838
789, 78.26271646, 17.97883031, -169.59621526
790, 78.26271646, -17.97883031, -169.59621526
791, 10.94768668, -7.31501038, -209.12940421
792, 11.83714618, -11.82833643, -208.58992052
793, 10.94768668, 7.31501038, -209.12940421
794, 11.48662986, 11.48662986, -208.67175213
795, -7.31501038, 10.94768668, -209.12940421
796, -7.31501038, -10.94768668, -209.12940421
797, 14.74866870, -8.90849062, -208.50439364
798, 15.43269876, -13.04311504, -207.93727053
799, 18.60025420, -10.66585265, -207.67430640
800, 18.85847082, -14.24631311, -207.16687008
801, 15.75136302, -16.76119754, -207.31884103
802, 19.39565044, -18.13716974, -206.40981183
803, -1.74951009, -19.90199443, -207.98392640
804, 23.02539581, -15.50833812, -206.06936347
805, 23.08803931, -20.14127164, -205.19071182
806, 18.87412828, -24.03988637, -205.21476327
807, 25.36144190, -25.33524326, -203.35375040
808, 20.43346219, -31.13959340, -202.80516874
809, 28.22171075, -32.36866137, -200.30949454
810, 21.62431747, -38.90752406, -199.54659941
811, 30.32676438, -40.81653412, -196.10631745
812, 23.08863038, -47.97519181, -194.64807214
813, -5.73747989, -20.34121984, -207.74106660
814, -3.43272373, -23.43594251, -207.15437719
815, 28.54681623, -17.33582155, -204.25788335
816, -11.78476100, -11.80096187, -208.59947620
817, -7.41051470, -23.73933677, -206.85828907
818, 0.55110818, -23.10092173, -207.29359534
819, -1.16660711, -26.73625753, -206.35253791
820, 32.53720230, -49.74205847, -190.41802090
821, 23.73147428, -57.14989020, -188.55384891
822, 13.06987778, -53.79123350, -193.28073903
823, 14.03655456, -64.25262566, -185.32977653
824, 2.51942428, -60.58400052, -189.51874862
825, 41.14211235, -41.47349756, -191.16203294
826, 43.71869313, -51.85116434, -183.48559469
827, 24.82216267, -68.07374296, -178.91897968
828, 43.45706212, -6.86573567, -199.80170057
829, 3.09647936, -71.71432383, -179.62375725
830, -8.76200645, -66.56787590, -184.10765912
831, -9.75278170, -56.11769440, -192.19299012
832, -20.23187348, -60.32419431, -187.14702117
833, -20.80391897, -50.12382090, -193.99285406
834, -14.93210104, -9.12804121, -208.45664641
835, -15.30992567, -12.83574477, -207.98392640
836, -30.83700151, -53.96045784, -188.34123006
837, -18.35472180, -10.24300331, -207.76597092
838, -18.28515133, -6.64181497, -208.08944660
839, -21.61116879, -7.74660992, -207.32906769
840, -20.82846872, -3.73492766, -207.73548591
841, -18.99901610, -14.14441165, -207.15437719
842, -30.61037214, -42.89676657, -194.98748458
843, -40.85210123, -47.06949403, -188.20210072
844, -41.07007761, -36.46215248, -193.56889470
845, -24.36814626, -5.04810882, -206.85406571
846, -23.67684106, -1.11943684, -207.15016242
847, -50.41334778, -39.57875056, -186.75947414
848, -11.40476282, 11.37223120, -208.69449702
849, -50.42338735, -28.68948756, -191.45179747
850, -41.54638281, -58.22262578, -179.88579199
851, -59.75246783, -31.46802717, -183.75232779
852, -58.32666312, -18.40256400, -189.11602877
853, -19.32294830, -71.32361297, -177.37630074
854, -69.26063198, -22.17778265, -178.63753212
855, -67.01645825, -9.15319974, -183.65468932
856, -12.99196865, 3.39593853, -209.09428012
857, -57.58271105, -5.87517858, -191.54577650
858, -63.99501085, 3.28755748, -186.77128729
859, -14.52836755, 7.18885135, -208.67748959
860, -15.61462164, 10.97179073, -208.16212813
861, -53.75648323, 5.72736489, -194.12750918
862, -60.21886051, 15.07069232, -188.40001959
863, -50.45816036, 17.79066782, -194.48352615
864, -55.81314420, 26.35429089, -188.67874100
865, -45.82568596, 28.87455293, -194.06108909
866, -50.75861500, 37.29179808, -187.67164733
867, -39.89402616, 39.47654471, -192.76514420
868, -44.96650162, 47.99838222, -185.32708037
869, -33.34009722, 49.94675325, -189.96098897
870, -74.14708929, 1.26953762, -177.08649212
871, -28.33309533, 40.95966447, -196.71529044
872, -22.09521260, 50.89399549, -193.19617060
873, -26.39063878, 59.05197621, -186.26531512
874, -14.30412125, 59.20082694, -189.31364451
875, -10.07726017, 49.82136524, -196.11782854
876, -2.52781482, 57.95216415, -191.45647195
877, 1.33432837, 50.64618820, -196.21591030
878, 8.91472550, 56.36874735, -192.11633206
879, 12.03716034, 47.09863398, -197.38893207
880, 20.16108270, 54.43843314, -191.42473667
881, 16.17147860, 63.98473513, -185.12946792
882, -1.76953841, 20.11314092, -207.94044260
883, -5.76805307, 20.39614255, -207.72782067
884, 28.78069628, 60.65006071, -184.11640612
885, 23.87326898, 43.94868752, -196.59434100
886, 24.03690589, 70.86866672, -176.33143472
887, -3.43272373, 23.43594251, -207.15437719
888, 0.54855257, 23.30327642, -207.24534127
889, -7.41051470, 23.73933677, -206.85828907
890, -9.74629340, 20.58954846, -207.37083885
891, 7.18041280, 73.80400949, -177.09254694
892, 18.02052649, 81.34072238, -165.30775269
893, -64.93246884, 23.24959815, -182.41015589
894, -57.00104374, 45.80097229, -178.21401579
895, -49.61850060, 57.99136659, -174.61428479
896, -20.15443352, 0.06969671, -207.94791448
897, -22.95031516, 2.81153745, -207.29017572
898, -26.61335319, 1.48576540, -206.38216605
899, -59.51970547, -45.49753825, -176.23729065
900, -11.66999485, 24.00152387, -206.37291151
901, -13.66487325, 20.75985795, -206.86227097
902, 2.85369850, -26.26057325, -206.44811402
903, 1.00721710, -31.78247872, -204.80959635
904, -4.21260058, -31.37274698, -204.85781330
905, -10.22533278, -29.32006175, -205.05670175
906, 0.10224417, -36.76168020, -202.99767962
907, -15.94512608, -16.72451074, -207.29359534
908, -19.21390832, -17.82477352, -206.50442050
909, -25.19939921, -9.22145417, -206.33252339
910, -29.10875069, -6.04890264, -205.47822479
911, -29.62569059, -11.24962652, -204.84600340
912, -19.19545628, 69.39273361, -179.39872463
913, -34.66654987, -7.09691293, -203.53001736
914, 17.22174999, 38.05020939, -200.86029327
915, 26.54765357, 34.98185023, -199.84148399
916, 33.16697805, 40.46550323, -195.22027115
917, 20.31260329, 29.42159711, -203.39040513
918, 28.32841440, 26.58048353, -202.14650744
919, 14.62656645, 8.91878031, -208.52166722
920, 15.19942487, 12.85790886, -207.99822276
921, -39.90512090, 20.08765185, -199.46545461
922, 37.87254772, 65.91309239, -174.97025766
923, -5.51364559, 28.24275591, -205.77027958
924, -25.86699404, 5.41501982, -206.44467937
925, -30.19864132, 4.59317999, -205.22050598
926, 1.54062000, 83.71666017, -164.67309485
927, 33.08913964, -23.27428200, -201.45171751
928, -35.18403207, -14.18465205, -202.52502112
929, -15.79171459, 24.92971825, -205.54648554
930, -12.03360044, 28.50216320, -205.09373877
931, -19.24468434, 28.90698998, -203.77647922
932, -19.37038645, 21.52118824, -205.71638619
933, -29.89671286, 10.15030594, -204.88497167
934, -25.00372900, 23.72496101, -203.87193276
935, 18.29632519, 10.33089941, -207.76766849
936, 18.85847082, 14.24631311, -207.16687008
937, 15.75136302, 16.76119754, -207.31884103
938, 21.93853845, 11.71258468, -206.85822573
939, 51.77534496, -41.41338107, -184.86150895
940, 54.86833617, -52.79517973, -174.82387433
941, 11.32236317, 89.49696417, -153.15202772
942, -35.25669515, 7.01321336, -203.31548792
943, 48.41174428, -30.52976036, -192.00144357
944, -8.07510617, 34.47155437, -203.52274910
945, -1.05408248, 32.16960192, -204.67843272
946, 4.53351461, -22.72645315, -207.27772393
947, 7.83632115, -28.14275181, -205.63774146
948, 8.63483495, -22.89058994, -206.96112890
949, -31.41087847, -32.16170067, -199.32514609
950, -22.02956852, 6.83987009, -207.30320800
951, -61.79008865, 53.97638108, -167.17110486
952, -52.68481655, 66.73454189, -162.63849376
953, 13.09582306, -4.07250787, -209.05510637
954, 37.99199282, -31.87229732, -196.83757911
955, 41.50940851, -22.38455439, -198.18106787
956, 89.15021172, 38.72340152, -133.51037909
957, 89.15021172, -38.72340152, -133.51037909
958, 22.48452724, 15.61670733, -206.17985489
959, 26.15517985, 13.73598291, -205.53653406
960, -9.84544262, -20.86244867, -207.30275174
961, -16.73866426, -20.92226133, -206.34353170
962, -21.40659481, -22.49845408, -205.05565350
963, -11.30793727, -24.01442737, -206.41285097
964, 41.93054562, 53.80486757, -183.12226453
965, 51.61864527, 59.29120812, -171.80669948
966, 55.72366279, 45.73875237, -179.30252475
967, 66.45782282, 50.98600768, -164.62403141
968, -42.34091318, -9.87245396, -200.05432651
969, 12.35069833, 30.77419935, -204.34197849
970, 8.89798801, 38.75810778, -201.75311924
971, -40.15379187, 69.19903496, -169.99305426
972, -41.25950022, 78.41794428, -156.34953783
973, -14.24849628, -0.08833651, -208.97965726
974, 60.79939206, -31.84270810, -182.72878293
975, 26.27965904, -10.92778835, -205.86429451
976, 31.76530142, -12.19723527, -204.03293613
977, -55.97731195, 74.97193107, -145.29518520
978, -11.59099972, -45.10958442, -198.49166130
979, 14.66465720, -37.21014493, -201.65343934
980, -40.78244473, -26.79116276, -197.28703111
981, -8.90533189, -14.65542611, -208.51859494
982, 29.61275123, 85.46434486, -152.64892405
983, -26.34520302, 77.53363135, -167.39744147
984, -7.31551972, 91.36230995, -149.99264296
985, 14.55891653, 5.20761215, -208.79736193
986, -12.01780461, 17.33553824, -207.74994366
987, 25.65382588, 9.19843297, -206.21470807
988, 29.81834303, 10.67607243, -204.85192616
989, 30.27819642, 15.80914148, -203.98564713
990, 45.55750469, 8.36108491, -198.62621523
991, 47.13169748, 17.26277113, -196.49046090
992, 54.94302850, 20.11672644, -191.09612159
993, 47.82850768, 27.93895236, -193.25772513
994, 34.45344625, 12.27367960, -203.07156833
995, 35.32507747, 18.85755277, -201.63259030
996, -68.94119316, 40.24403188, -170.22897794
997, -20.70627762, -41.72633862, -198.48820674
998, 43.86468045, -62.76440077, -174.31578193
999, 55.75211701, -63.30286594, -163.70706297
1000, 68.24360717, -49.63572100, -163.65729476
1001, 42.07737461, -75.45130114, -160.36462749
1002, 11.12473301, -26.24188202, -205.85198977
1003, 13.14819043, -23.49817142, -206.30659909
1004, 10.16755602, -18.72258044, -207.70407252
1005, 46.67268622, 70.72290630, -163.10302144
1006, -0.65963868, -49.88688357, -196.66523942
1007, 67.45658668, -63.20557800, -148.14005537
1008, -35.91868506, 31.06638206, -198.00413609
1009, -28.95093520, -18.90523631, -203.83195293
1010, -3.50095267, 39.11646015, -201.96546023
1011, -11.41755417, 40.98177497, -200.49935678
1012, -44.15304227, 11.09180062, -199.03640164
1013, -21.87431608, -30.41015345, -202.71858963
1014, 15.71836394, 24.89432120, -205.56780738
1015, 7.69388495, 26.74840942, -206.04856442
1016, 10.33696422, 20.93896012, -207.23531827
1017, -48.48234359, -19.04058323, -195.36344973
1018, 3.29407675, 97.27928059, -132.93230528
1019, 66.27216398, -11.90456078, -183.93430674
1020, -24.40542014, 16.50244246, -205.56173324
1021, -75.79313447, 47.02778773, -155.20827302
1022, -80.64412282, 30.56273570, -160.62059503
1023, 36.96542200, -4.98203385, -202.78327928
1024, 35.28631838, 4.11183119, -203.47710190
1025, 89.44346220, 19.16450152, -150.40530845
1026, 90.49001911, -19.23270775, -147.96919007
1027, -39.98417117, -1.79971660, -201.64075009
1028, -49.15504441, -3.39062351, -197.01887888
1029, 79.75917510, 36.65780249, -157.90281311
1030, 77.07198890, 53.30132908, -144.91241678
1031, -93.66796301, 26.98195820, -132.32233492
1032, -93.64523814, -27.32404466, -131.99922629
1033, -83.74276907, -37.89970534, -149.37970242
1034, -72.15256707, -55.07127565, -151.96619668
1035, -69.51812878, -68.23029335, -132.62425336
1036, -58.78918379, -69.19799836, -151.89831610
1037, 8.86312019, -46.10745703, -198.29239779
1038, -19.13038816, 15.16001675, -206.97526561
1039, 62.11160534, 11.79474671, -187.47923872
1040, 64.79915238, 23.52222339, -182.44152716
1041, 9.57047310, -14.90502958, -208.41872859
1042, -31.71173683, -1.00127997, -204.83334427
1043, -8.29548037, -37.84658940, -202.18904857
1044, 26.88168207, 3.32505868, -206.26172216
1045, 27.06421096, -3.68965551, -206.19727089
1046, -40.44864947, 87.26885569, -137.35056823
1047, -31.41705849, 18.69032642, -203.07867712
1048, 21.48726061, 22.71118116, -204.98684057
1049, -89.82562506, 14.25145733, -151.57226296
1050, -90.43141465, -5.49809296, -152.33119674
1051, 81.57941513, -35.45659523, -155.69057761
1052, -26.85334782, 31.36626560, -201.07719305
1053, -20.41043736, 36.89408148, -200.67657249
1054, 6.09005663, -19.14596612, -207.96092686
1055, 2.97403738, -16.53755261, -208.57821491
1056, -12.98737454, -3.84894923, -209.07832100
1057, 21.92905340, 7.62442209, -207.26759381
1058, -16.66754960, 3.83068815, -208.52674063
1059, -16.63316948, 18.46075130, -206.86350362
1060, -41.73707674, -87.84571651, -133.26255610
1061, -27.37712943, -86.95168917, -151.10835116
1062, -7.75053052, -90.89613846, -150.96121690
1063, 5.30057780, -97.51528501, -131.50983646
1064, 14.78913917, -90.45633674, -149.98665411
1065, 3.63516941, -82.42115531, -166.51140328
1066, 23.15433691, -79.99591706, -165.35819664
1067, 32.61608526, -91.68545285, -133.02104944
1068, 34.49510693, 31.16315572, -198.53781860
1069, -24.34895160, -15.27411306, -205.78011290
1070, 16.58161173, -20.86024718, -206.38412857
1071, 46.47698514, 40.44954738, -188.76372242
1072, -19.38534326, 3.87021633, -208.02667949
1073, -17.00620828, -2.39844335, -208.51414289
1074, -21.68784278, -11.39133474, -206.95295234
1075, 21.72520747, -11.74989655, -206.90178167
1076, 21.34503147, -7.84388624, -207.37999322
1077, 20.23788653, 18.63757668, -206.14087936
1078, -4.97638580, -27.32823557, -206.06457789
1079, -1.33292203, 28.03729972, -205.97985801
1080, 2.66020877, 27.72668989, -206.04245914
1081, 4.42351429, 23.36081821, -207.13240805
1082, 4.01214397, 17.43920680, -208.38585654
1083, 22.78511640, 3.11802129, -207.31966098
1084, 23.05647475, -3.03384863, -207.25839159
1085, -8.08048152, 17.24716568, -208.16945092
1086, -60.30974132, -57.85320667, -164.91576804
1087, -45.61088983, -67.44652216, -168.05698389
1088, 12.10332854, 15.39555064, -208.06368573
1089, 7.16429576, 18.64146648, -207.98555298
1090, 29.75590334, 50.45182539, -191.05059859
1091, 38.02940021, -10.71857287, -201.86336002
1092, 17.47750828, 6.78652474, -208.22667553
1093, 37.44610879, 90.01508532, -132.25024386
1094, 2.21980749, -19.73284878, -208.00860745
1095, -14.77196268, -81.84123359, -165.53198720
1096, 68.30123628, 35.14975060, -174.02683934
1097, -71.97426814, -43.05964926, -164.45705951
1098, -79.30782951, -27.18623955, -164.50849986
1099, -76.71487124, -12.21199855, -172.97376932
1100, -6.50925795, 67.56726434, -183.43224327
1101, 16.17380492, -5.73526384, -208.51657111
1102, 50.05100274, -19.73359855, -194.29402241
1103, -14.23836614, 14.51188400, -207.91156291
1104, -19.99772163, 11.12059807, -207.34692305
1105, -18.13630621, 7.52351724, -208.05340935
1106, -16.55000559, -25.85498535, -205.17151384
1107, 62.54505962, 64.57022184, -153.80413188
1108, 2.07019334, 20.59167071, -207.83505198
1109, -12.62830581, -15.58391597, -207.96768577
1110, -9.77837451, 76.66333505, -173.45956549
1111, 77.30441447, -60.08780775, -130.33427803
1112, -13.01809799, -19.24829469, -207.26269725
1113, 44.18070212, -14.51430161, -198.52909470
1114, 71.22663102, -33.94811804, -171.43526931
1115, -83.22953129, -0.66116656, -165.42930614
1116, -79.45101000, 14.35849511, -169.00314083
1117, 16.54154247, 20.60734428, -206.44539768
1118, 12.77183372, -15.77475030, -207.91852489
1119, -70.19280849, 68.28106001, -130.26490759
1120, 34.12982450, 77.36213407, -163.38778223
1121, -16.06508043, -35.41268073, -202.12955679
1122, -38.19065142, 59.33121491, -180.86099831
1123, 12.82847559, 18.83759282, -207.36824591
1124, 14.11917331, -74.36736214, -175.34634186
1125, 29.03829252, -7.41017991, -205.40370434
1126, 33.63977333, -8.09991988, -203.82300863
1127, -27.68853013, -26.69220052, -202.30856802
1128, 25.68309724, 19.45616431, -204.66697516
1129, -34.27605305, -23.71886162, -200.89866770
1130, 6.88603038, -33.55306548, -203.95091475
1131, 31.74005898, -85.57163371, -150.86641849
1132, -70.88483652, 14.23538439, -179.08468559
1133, -32.02735758, -66.06714955, -177.89241575
1134, 4.78927278, 64.76346921, -186.04443387
1135, -63.12494777, 33.96247265, -179.72654746
1136, -25.02654608, 87.49312688, -151.45629917
1137, 71.25009577, 14.20491578, -178.71422139
1138, 5.24833750, 31.53357777, -204.75277530
1139, -27.19989326, -2.29917317, -206.20228485
1140, -49.07023203, -50.20534834, -181.21471285
1141, 11.34752024, 25.20343686, -206.10421715
1142, 36.40827347, -16.79884023, -201.60915123
1143, 57.75170840, 32.76434746, -184.77457932
1144, 34.58002310, -60.20400256, -181.97013324
1145, 96.31091037, -19.97660280, -128.03174658
1146, -68.04556135, 61.86465632, -149.27551246
1147, 9.28114317, 13.95426924, -208.58569243
1148, -30.64162626, -76.44116759, -166.72599614
1149, 54.59529801, -73.53337632, -150.15216062
1150, -3.78875734, -42.97669385, -200.21446172
1151, 25.39465170, -6.54186718, -206.50034010
1152, -30.50047651, 67.75469445, -176.92549823
1153, -36.29474538, 14.02432970, -202.11953992
1154, -7.40894840, -75.84069929, -174.75566242
1155, -17.59597905, 44.30935419, -197.90371239
1156, -6.10557201, 13.74283420, -208.86281656
1157, -10.13659198, -17.28918848, -207.97108484
1158, -72.37099350, 26.47504049, -173.72998925
1159, -24.91144774, 10.69877627, -206.25464123
1160, -22.24223748, 13.37737160, -206.57291960
1161, 40.78233304, 23.82579447, -198.14268449
1162, 71.69460498, 67.01986459, -129.18909502
1163, -5.52457883, -13.60785327, -208.91564769
1164, 45.33324071, 80.29598546, -148.69692502
1165, 78.29466194, -50.41602929, -146.44406538
1166, 96.76736091, 17.48012691, -128.18029224
1167, -9.97008336, 14.45876610, -208.44562723
1168, 28.47030970, 6.49875208, -205.64103558
1169, 33.26660548, 7.64069197, -203.99442955
1170, 40.68083624, 14.78098839, -200.14761197
1171, -12.84038239, 84.53343310, -161.85772139
1172, 12.13812730, 2.51015529, -209.22885158
1173, -31.30828986, 25.64318582, -201.44516394
1174, -69.01788513, -34.43594078, -173.64509027
1175, 2.15709117, -43.72797488, -199.90668034
1176, -14.18890915, 33.84789538, -203.02147513
1177, 15.84190248, -2.64219883, -208.70183844
1178, 16.19161764, 2.94959537, -208.63635945
1179, 38.46762855, 8.53221208, -201.90997177
1180, 61.62507587, -41.83108659, -176.72713255
1181, 68.16074819, -23.38511011, -179.33432794
1182, 13.90810438, -19.36170892, -207.11688247
1183, 20.89856905, 94.18100009, -136.32848332
1184, -55.89910685, 80.81656271, -128.54651035
1185, 13.48544240, -29.58485061, -204.56679892
1186, -40.69056279, -18.50634247, -199.45274388
1187, -86.18466371, 34.73662693, -146.95362623
1188, -44.45173641, -79.25784774, -151.74010904
1189, 34.34626500, 24.65251302, -200.62332858
1190, -13.91177398, -22.03274882, -206.54543243
1191, 7.51157544, 22.53670491, -207.13739324
1192, 30.95350090, 21.27382906, -202.67850333
1193, 13.81154687, 22.29804887, -206.49890253
1194, -6.86344479, -17.18672354, -208.27262925
1195, 38.22491142, 45.83156996, -190.23916340
1196, 34.17165905, -71.15386618, -171.39564353
1197, 2.73660485, 43.38912596, -200.05495401
1198, 25.06027968, 5.63889755, -206.64463367
1199, 9.75905850, 17.43821626, -207.98300562
1200, 59.04081399, -21.37556110, -187.82845027
1201, -45.31948383, 3.16914562, -199.08479613
1202, -51.63786483, -56.68348852, -174.19122249
1203, -17.31396524, 0.54467880, -208.48822230
1204, -51.58153571, -11.46998795, -194.89867225
1205, 18.38740127, -7.47934080, -208.01001447
1206, 3.07560532, 37.02943190, -202.84051823
1207, -25.04545450, -36.46658606, -199.68229095
1208, 16.59652610, -43.82583524, -198.33941072
1209, -4.27954252, 44.84202440, -199.27977578
1210, -89.90317174, -21.39462131, -148.20588817
1211, 82.11674712, 53.62676804, -129.51946700
1212, 44.54187052, -82.12526114, -145.65758339
1213, 40.90868191, 35.45479035, -194.07994758
1214, -85.06733038, -13.55845762, -160.79091975
1215, 8.11503091, -39.86305866, -201.35142488
1216, 4.83234967, 20.25591146, -207.80770137
1217, -55.93569565, -78.46921192, -136.71667519
1218, -15.17968690, -6.13890577, -208.65034689
*ELEMENT, TYPE=S3
1, 1, 288, 5
2, 5, 690, 1
3, 1, 26, 291
4, 26, 1, 707
5, 1, 33, 288
6, 1, 291, 33
7, 56, 1, 690
8, 1, 56, 707
9, 289, 2, 27
10, 27, 2, 290
11, 2, 34, 290
12, 34, 2, 1166
13, 2, 289, 55
14, 55, 1145, 2
15, 94, 2, 1145
16, 94, 1166, 2
17, 67, 712, 3
18, 3, 719, 67
19, 4, 83, 953
20, 4, 1172, 83
21, 6, 5, 264
22, 5, 6, 498
23, 5, 288, 264
24, 498, 690, 5
25, 7, 6, 127
26, 6, 7, 710
27, 127, 6, 264
28, 710, 498, 6
29, 8, 7, 254
30, 7, 8, 325
31, 254, 7, 127
32, 325, 710, 7
33, 9, 8, 113
34, 8, 9, 638
35, 8, 254, 113
36, 8, 638, 325
37, 10, 9, 211
38, 9, 10, 556
39, 9, 113, 211
40, 728, 9, 556
41, 9, 728, 638
42, 11, 10, 287
43, 10, 11, 318
44, 10, 211, 287
45, 10, 318, 556
46, 125, 12, 11
47, 11, 12, 729
48, 287, 125, 11
49, 11, 589, 318
50, 589, 11, 729
51, 13, 12, 276
52, 12, 13, 664
53, 276, 12, 125
54, 729, 12, 664
55, 112, 14, 13
56, 13, 14, 327
57, 112, 13, 276
58, 664, 13, 327
59, 15, 14, 299
60, 14, 15, 572
61, 14, 112, 299
62, 14, 572, 327
63, 16, 15, 283
64, 16, 322, 15
65, 208, 283, 15
66, 299, 208, 15
67, 322, 572, 15
68, 16, 111, 17
69, 16, 17, 573
70, 16, 283, 111
71, 16, 573, 322
72, 18, 17, 286
73, 17, 18, 328
74, 286, 17, 111
75, 328, 573, 17
76, 19, 18, 258
77, 18, 19, 576
78, 18, 286, 258
79, 18, 576, 328
80, 19, 116, 20
81, 19, 20, 604
82, 116, 19, 258
83, 576, 19, 752
84, 752, 19, 604
85, 21, 20, 273
86, 20, 21, 320
87, 116, 273, 20
88, 20, 320, 604
89, 22, 21, 263
90, 21, 22, 607
91, 273, 263, 21
92, 320, 21, 607
93, 23, 22, 114
94, 22, 23, 709
95, 114, 22, 263
96, 607, 22, 637
97, 22, 709, 637
98, 24, 23, 257
99, 23, 24, 326
100, 23, 114, 257
101, 709, 23, 326
102, 128, 25, 24
103, 24, 25, 646
104, 257, 128, 24
105, 24, 646, 326
106, 26, 25, 266
107, 25, 26, 499
108, 25, 128, 266
109, 25, 499, 646
110, 26, 266, 291
111, 499, 26, 707
112, 27, 28, 129
113, 130, 28, 27
114, 27, 129, 289
115, 27, 290, 130
116, 28, 29, 131
117, 29, 28, 220
118, 129, 28, 131
119, 220, 28, 130
120, 120, 29, 30
121, 29, 121, 30
122, 29, 120, 131
123, 121, 29, 220
124, 30, 31, 212
125, 31, 30, 295
126, 120, 30, 212
127, 30, 121, 295
128, 31, 32, 123
129, 32, 31, 124
130, 123, 212, 31
131, 124, 31, 295
132, 32, 33, 228
133, 33, 32, 229
134, 32, 228, 123
135, 124, 229, 32
136, 291, 228, 33
137, 33, 229, 288
138, 34, 35, 265
139, 35, 34, 956
140, 290, 34, 265
141, 1166, 956, 34
142, 126, 35, 36
143, 35, 1162, 36
144, 265, 35, 126
145, 956, 1211, 35
146, 35, 1211, 1162
147, 36, 37, 255
148, 37, 36, 781
149, 126, 36, 255
150, 781, 36, 1162
151, 37, 38, 119
152, 38, 37, 1093
153, 37, 119, 255
154, 37, 781, 1093
155, 38, 39, 261
156, 39, 38, 1018
157, 38, 261, 119
158, 38, 1183, 1018
159, 1183, 38, 1093
160, 39, 40, 293
161, 40, 39, 776
162, 39, 293, 261
163, 39, 1018, 776
164, 41, 115, 40
165, 40, 1184, 41
166, 40, 115, 293
167, 40, 776, 1046
168, 1184, 40, 1046
169, 41, 42, 285
170, 42, 41, 1119
171, 41, 285, 115
172, 1119, 41, 1184
173, 43, 298, 42
174, 42, 783, 43
175, 285, 42, 226
176, 226, 42, 298
177, 42, 1119, 783
178, 44, 118, 43
179, 44, 43, 1031
180, 43, 118, 298
181, 1031, 43, 783
182, 45, 277, 44
183, 44, 778, 45
184, 118, 44, 277
185, 1031, 778, 44
186, 46, 252, 45
187, 45, 1032, 46
188, 45, 252, 277
189, 1032, 45, 778
190, 47, 117, 46
191, 46, 784, 47
192, 46, 117, 252
193, 784, 46, 1032
194, 48, 256, 47
195, 47, 1035, 48
196, 117, 47, 256
197, 47, 784, 1035
198, 49, 250, 48
199, 48, 1060, 49
200, 256, 48, 250
201, 48, 1035, 1217
202, 1217, 1060, 48
203, 50, 110, 49
204, 49, 774, 50
205, 110, 250, 49
206, 774, 49, 1060
207, 50, 51, 253
208, 51, 50, 1063
209, 110, 50, 253
210, 774, 1063, 50
211, 51, 52, 284
212, 52, 51, 1067
213, 253, 51, 284
214, 1067, 51, 1063
215, 122, 52, 53
216, 52, 782, 53
217, 52, 122, 284
218, 1067, 782, 52
219, 54, 282, 53
220, 53, 1111, 54
221, 122, 53, 282
222, 53, 782, 1111
223, 54, 55, 260
224, 54, 957, 55
225, 260, 282, 54
226, 957, 54, 1111
227, 260, 55, 289
228, 55, 957, 1145
229, 57, 56, 566
230, 56, 57, 569
231, 566, 56, 690
232, 707, 56, 569
233, 58, 57, 333
234, 57, 58, 334
235, 566, 333, 57
236, 57, 334, 569
237, 58, 580, 59
238, 59, 585, 58
239, 58, 333, 720
240, 687, 334, 58
241, 580, 58, 720
242, 58, 585, 687
243, 60, 308, 59
244, 59, 310, 60
245, 308, 585, 59
246, 59, 580, 310
247, 60, 61, 456
248, 61, 60, 533
249, 60, 456, 308
250, 60, 310, 533
251, 61, 62, 563
252, 565, 62, 61
253, 456, 61, 563
254, 565, 61, 533
255, 62, 63, 314
256, 63, 62, 315
257, 563, 62, 314
258, 62, 565, 315
259, 64, 63, 587
260, 63, 64, 588
261, 63, 588, 314
262, 315, 587, 63
263, 65, 64, 627
264, 64, 65, 628
265, 64, 587, 627
266, 64, 628, 588
267, 66, 323, 65
268, 65, 324, 66
269, 323, 628, 65
270, 324, 65, 627
271, 67, 66, 718
272, 66, 67, 727
273, 323, 66, 727
274, 718, 66, 324
275, 67, 718, 712
276, 719, 727, 67
277, 712, 337, 68
278, 307, 69, 337
279, 313, 70, 307
280, 313, 311, 70
281, 319, 71, 311
282, 698, 72, 319
283, 339, 72, 698
284, 73, 391, 316
285, 73, 339, 391
286, 74, 316, 402
287, 74, 402, 399
288, 75, 399, 516
289, 75, 516, 599
290, 76, 599, 317
291, 340, 77, 317
292, 321, 78, 705
293, 78, 340, 705
294, 79, 321, 309
295, 80, 312, 306
296, 80, 309, 312
297, 81, 306, 335
298, 82, 335, 719
299, 83, 84, 1177
300, 84, 83, 1178
301, 953, 83, 1177
302, 83, 1172, 1178
303, 85, 779, 84
304, 84, 780, 85
305, 1177, 84, 779
306, 84, 1178, 780
307, 86, 85, 1083
308, 1084, 85, 86
309, 1084, 779, 85
310, 1083, 85, 780
311, 87, 86, 1044
312, 86, 87, 1045
313, 86, 1083, 1044
314, 86, 1045, 1084
315, 88, 770, 87
316, 87, 771, 88
317, 1045, 87, 770
318, 771, 87, 1044
319, 88, 89, 1023
320, 89, 88, 1024
321, 88, 1023, 770
322, 88, 771, 1024
323, 828, 89, 90
324, 90, 89, 990
325, 1023, 89, 828
326, 1179, 990, 89
327, 1024, 1179, 89
328, 90, 764, 91
329, 91, 766, 90
330, 990, 764, 90
331, 828, 90, 766
332, 91, 92, 1019
333, 92, 91, 1039
334, 1039, 91, 764
335, 766, 91, 1019
336, 92, 789, 93
337, 93, 790, 92
338, 92, 1137, 789
339, 1019, 92, 790
340, 92, 1039, 1137
341, 94, 93, 1025
342, 93, 94, 1026
343, 93, 789, 1025
344, 1026, 790, 93
345, 1025, 1166, 94
346, 94, 1145, 1026
347, 1172, 95, 793
348, 793, 96, 763
349, 97, 769, 763
350, 97, 765, 769
351, 765, 98, 777
352, 1156, 777, 99
353, 795, 1156, 99
354, 848, 100, 772
355, 848, 795, 100
356, 859, 772, 101
357, 859, 101, 856
358, 856, 102, 973
359, 102, 1056, 973
360, 773, 1056, 103
361, 773, 104, 796
362, 775, 1163, 105
363, 796, 105, 1163
364, 775, 106, 767
365, 768, 107, 762
366, 768, 767, 107
367, 791, 762, 108
368, 791, 109, 953
369, 251, 250, 110
370, 251, 110, 274
371, 274, 110, 253
372, 207, 246, 111
373, 111, 283, 207
374, 247, 111, 246
375, 111, 247, 286
376, 112, 268, 299
377, 268, 112, 300
378, 112, 276, 300
379, 199, 113, 254
380, 113, 199, 280
381, 113, 280, 211
382, 114, 263, 197
383, 279, 114, 197
384, 279, 257, 114
385, 221, 222, 115
386, 221, 115, 285
387, 115, 222, 223
388, 223, 293, 115
389, 235, 273, 116
390, 235, 116, 275
391, 258, 275, 116
392, 292, 252, 117
393, 117, 256, 259
394, 117, 259, 292
395, 118, 267, 298
396, 302, 267, 118
397, 302, 118, 277
398, 195, 255, 119
399, 119, 278, 195
400, 119, 261, 278
401, 131, 120, 132
402, 132, 120, 133
403, 133, 120, 212
404, 295, 121, 202
405, 202, 121, 301
406, 121, 220, 203
407, 301, 121, 203
408, 214, 215, 122
409, 122, 282, 214
410, 216, 122, 215
411, 284, 122, 216
412, 212, 123, 232
413, 228, 231, 123
414, 123, 231, 232
415, 124, 295, 202
416, 124, 202, 305
417, 124, 296, 229
418, 305, 296, 124
419, 201, 204, 125
420, 125, 205, 201
421, 276, 125, 204
422, 287, 205, 125
423, 126, 255, 272
424, 265, 126, 303
425, 272, 303, 126
426, 264, 200, 127
427, 127, 200, 271
428, 254, 127, 271
429, 231, 266, 128
430, 281, 231, 128
431, 281, 128, 257
432, 213, 129, 131
433, 129, 213, 260
434, 129, 260, 289
435, 220, 130, 262
436, 262, 130, 303
437, 265, 130, 290
438, 303, 130, 265
439, 213, 131, 132
440, 133, 134, 132
441, 132, 134, 182
442, 213, 132, 182
443, 134, 133, 135
444, 135, 133, 232
445, 133, 212, 232
446, 135, 136, 134
447, 134, 136, 219
448, 182, 134, 219
449, 136, 135, 137
450, 137, 135, 191
451, 135, 232, 191
452, 136, 137, 138
453, 136, 138, 139
454, 136, 139, 219
455, 137, 230, 138
456, 191, 192, 137
457, 230, 137, 192
458, 139, 138, 140
459, 141, 140, 138
460, 138, 230, 141
461, 233, 139, 140
462, 139, 217, 219
463, 139, 233, 217
464, 140, 141, 142
465, 143, 140, 142
466, 143, 233, 140
467, 142, 141, 177
468, 197, 177, 141
469, 197, 141, 230
470, 142, 144, 143
471, 144, 142, 234
472, 177, 234, 142
473, 145, 143, 144
474, 145, 181, 143
475, 143, 181, 233
476, 144, 146, 145
477, 147, 146, 144
478, 147, 144, 234
479, 145, 146, 165
480, 165, 251, 145
481, 251, 181, 145
482, 147, 148, 146
483, 146, 148, 236
484, 146, 236, 165
485, 149, 148, 147
486, 189, 149, 147
487, 189, 147, 234
488, 150, 148, 149
489, 148, 150, 151
490, 148, 151, 236
491, 150, 149, 180
492, 248, 180, 149
493, 189, 248, 149
494, 150, 152, 151
495, 241, 152, 150
496, 150, 180, 241
497, 152, 153, 151
498, 190, 151, 153
499, 236, 151, 190
500, 152, 154, 153
501, 152, 155, 154
502, 241, 155, 152
503, 179, 153, 154
504, 153, 179, 240
505, 190, 153, 240
506, 155, 156, 154
507, 237, 154, 156
508, 154, 237, 179
509, 155, 157, 156
510, 157, 155, 183
511, 241, 183, 155
512, 158, 156, 157
513, 158, 159, 156
514, 156, 159, 237
515, 158, 157, 243
516, 157, 183, 187
517, 243, 157, 187
518, 159, 158, 160
519, 160, 158, 245
520, 158, 243, 245
521, 161, 159, 160
522, 159, 161, 244
523, 159, 244, 237
524, 160, 162, 161
525, 163, 162, 160
526, 245, 163, 160
527, 161, 162, 184
528, 186, 161, 184
529, 161, 186, 244
530, 162, 163, 164
531, 162, 164, 242
532, 184, 162, 242
533, 164, 163, 166
534, 166, 163, 178
535, 245, 178, 163
536, 166, 167, 164
537, 164, 167, 168
538, 168, 242, 164
539, 236, 294, 165
540, 270, 251, 165
541, 165, 294, 270
542, 167, 166, 209
543, 178, 201, 166
544, 209, 166, 201
545, 169, 168, 167
546, 167, 170, 169
547, 209, 170, 167
548, 227, 168, 169
549, 227, 224, 168
550, 242, 168, 224
551, 171, 169, 170
552, 169, 171, 172
553, 169, 172, 227
554, 170, 269, 171
555, 210, 170, 209
556, 170, 210, 269
557, 172, 171, 173
558, 173, 171, 174
559, 171, 269, 174
560, 175, 172, 173
561, 172, 175, 185
562, 172, 185, 227
563, 173, 174, 176
564, 175, 173, 249
565, 173, 176, 249
566, 188, 176, 174
567, 199, 188, 174
568, 269, 199, 174
569, 195, 185, 175
570, 195, 175, 196
571, 249, 196, 175
572, 176, 188, 193
573, 193, 194, 176
574, 249, 176, 194
575, 177, 197, 198
576, 198, 235, 177
577, 177, 235, 234
578, 178, 204, 201
579, 206, 204, 178
580, 178, 245, 206
581, 237, 238, 179
582, 238, 239, 179
583, 240, 179, 239
584, 241, 180, 246
585, 247, 246, 180
586, 248, 247, 180
587, 233, 181, 218
588, 274, 218, 181
589, 181, 251, 274
590, 213, 182, 214
591, 214, 182, 215
592, 215, 182, 219
593, 187, 183, 207
594, 183, 246, 207
595, 183, 241, 246
596, 221, 186, 184
597, 222, 221, 184
598, 242, 222, 184
599, 195, 278, 185
600, 225, 227, 185
601, 185, 278, 225
602, 221, 226, 186
603, 186, 226, 267
604, 267, 244, 186
605, 187, 207, 208
606, 208, 268, 187
607, 268, 243, 187
608, 200, 193, 188
609, 199, 271, 188
610, 188, 271, 200
611, 234, 235, 189
612, 189, 235, 275
613, 248, 189, 275
614, 294, 236, 190
615, 240, 292, 190
616, 259, 190, 292
617, 190, 259, 294
618, 192, 191, 281
619, 232, 231, 191
620, 281, 191, 231
621, 279, 230, 192
622, 192, 257, 279
623, 281, 257, 192
624, 193, 202, 194
625, 193, 200, 305
626, 305, 202, 193
627, 301, 194, 202
628, 301, 203, 194
629, 304, 194, 203
630, 304, 249, 194
631, 195, 196, 272
632, 272, 255, 195
633, 249, 304, 196
634, 297, 272, 196
635, 304, 297, 196
636, 263, 198, 197
637, 279, 197, 230
638, 235, 198, 273
639, 198, 263, 273
640, 199, 254, 271
641, 199, 269, 280
642, 296, 200, 264
643, 200, 296, 305
644, 209, 201, 205
645, 220, 262, 203
646, 262, 297, 203
647, 304, 203, 297
648, 206, 300, 204
649, 276, 204, 300
650, 205, 210, 209
651, 205, 211, 210
652, 205, 287, 211
653, 245, 243, 206
654, 268, 206, 243
655, 268, 300, 206
656, 207, 283, 208
657, 299, 268, 208
658, 211, 280, 210
659, 280, 269, 210
660, 260, 213, 214
661, 260, 214, 282
662, 216, 215, 217
663, 215, 219, 217
664, 218, 216, 217
665, 253, 216, 218
666, 253, 284, 216
667, 233, 218, 217
668, 274, 253, 218
669, 285, 226, 221
670, 222, 224, 223
671, 222, 242, 224
672, 224, 225, 223
673, 225, 261, 223
674, 293, 223, 261
675, 224, 227, 225
676, 261, 225, 278
677, 226, 298, 267
678, 231, 228, 266
679, 266, 228, 291
680, 229, 264, 288
681, 229, 296, 264
682, 238, 237, 244
683, 238, 302, 239
684, 238, 244, 267
685, 302, 238, 267
686, 252, 240, 239
687, 252, 239, 277
688, 302, 277, 239
689, 240, 252, 292
690, 248, 258, 247
691, 286, 247, 258
692, 258, 248, 275
693, 251, 270, 250
694, 256, 250, 270
695, 256, 270, 259
696, 294, 259, 270
697, 297, 262, 303
698, 297, 303, 272
699, 582, 306, 312
700, 336, 335, 306
701, 306, 582, 336
702, 692, 313, 307
703, 307, 337, 338
704, 307, 338, 692
705, 482, 308, 456
706, 482, 483, 308
707, 308, 483, 585
708, 309, 598, 312
709, 321, 329, 309
710, 309, 329, 598
711, 310, 534, 533
712, 310, 535, 534
713, 580, 535, 310
714, 626, 311, 313
715, 331, 319, 311
716, 311, 626, 331
717, 582, 312, 543
718, 597, 543, 312
719, 597, 312, 598
720, 313, 634, 626
721, 726, 634, 313
722, 726, 313, 692
723, 639, 563, 314
724, 671, 314, 588
725, 671, 639, 314
726, 565, 696, 315
727, 587, 315, 743
728, 743, 315, 696
729, 403, 316, 391
730, 403, 402, 316
731, 317, 360, 340
732, 360, 317, 377
733, 317, 761, 377
734, 599, 761, 317
735, 527, 556, 318
736, 318, 682, 527
737, 682, 318, 589
738, 332, 319, 331
739, 698, 319, 332
740, 604, 320, 605
741, 605, 320, 606
742, 320, 607, 606
743, 329, 321, 330
744, 705, 330, 321
745, 322, 593, 572
746, 759, 322, 573
747, 593, 322, 594
748, 759, 594, 322
749, 628, 323, 620
750, 620, 323, 654
751, 323, 727, 654
752, 632, 324, 601
753, 601, 324, 746
754, 627, 746, 324
755, 632, 718, 324
756, 706, 325, 638
757, 647, 325, 706
758, 710, 325, 647
759, 558, 326, 646
760, 558, 665, 326
761, 326, 665, 709
762, 572, 732, 327
763, 664, 327, 754
764, 732, 754, 327
765, 574, 573, 328
766, 328, 575, 574
767, 575, 328, 576
768, 330, 347, 329
769, 347, 703, 329
770, 703, 598, 329
771, 330, 357, 347
772, 737, 357, 330
773, 705, 737, 330
774, 425, 332, 331
775, 656, 425, 331
776, 626, 656, 331
777, 332, 425, 426
778, 426, 629, 332
779, 698, 332, 629
780, 333, 566, 567
781, 333, 567, 600
782, 581, 333, 600
783, 333, 581, 720
784, 725, 560, 334
785, 745, 334, 560
786, 569, 334, 745
787, 725, 334, 687
788, 335, 336, 341
789, 497, 335, 341
790, 719, 335, 497
791, 336, 342, 341
792, 342, 336, 663
793, 336, 582, 663
794, 338, 337, 463
795, 337, 528, 463
796, 337, 712, 528
797, 338, 463, 464
798, 464, 633, 338
799, 633, 692, 338
800, 391, 339, 708
801, 698, 708, 339
802, 360, 524, 340
803, 705, 340, 524
804, 343, 341, 342
805, 654, 341, 343
806, 341, 654, 497
807, 344, 343, 342
808, 342, 345, 344
809, 342, 663, 345
810, 343, 344, 619
811, 619, 620, 343
812, 654, 343, 620
813, 344, 345, 346
814, 348, 344, 346
815, 344, 348, 619
816, 345, 614, 346
817, 345, 723, 614
818, 345, 663, 723
819, 346, 349, 348
820, 349, 346, 350
821, 350, 346, 614
822, 357, 358, 347
823, 347, 358, 362
824, 347, 362, 703
825, 348, 349, 753
826, 348, 510, 621
827, 348, 753, 510
828, 621, 619, 348
829, 349, 350, 351
830, 349, 351, 359
831, 349, 359, 753
832, 351, 350, 352
833, 350, 739, 352
834, 739, 350, 614
835, 353, 351, 352
836, 704, 351, 353
837, 704, 359, 351
838, 352, 354, 353
839, 522, 354, 352
840, 352, 730, 522
841, 739, 730, 352
842, 355, 353, 354
843, 636, 353, 355
844, 353, 636, 704
845, 354, 356, 355
846, 356, 354, 757
847, 522, 757, 354
848, 364, 355, 356
849, 355, 364, 369
850, 355, 369, 636
851, 364, 356, 365
852, 366, 365, 356
853, 356, 757, 366
854, 361, 358, 357
855, 357, 502, 361
856, 737, 502, 357
857, 363, 358, 361
858, 358, 363, 362
859, 359, 715, 510
860, 510, 753, 359
861, 715, 359, 704
862, 360, 377, 378
863, 657, 360, 378
864, 360, 657, 524
865, 447, 363, 361
866, 448, 447, 361
867, 505, 448, 361
868, 361, 502, 505
869, 445, 362, 363
870, 362, 445, 488
871, 703, 362, 488
872, 363, 446, 445
873, 363, 447, 446
874, 364, 365, 722
875, 369, 364, 370
876, 364, 722, 370
877, 366, 367, 365
878, 365, 367, 371
879, 722, 365, 371
880, 367, 366, 368
881, 545, 368, 366
882, 578, 545, 366
883, 578, 366, 757
884, 368, 372, 367
885, 701, 371, 367
886, 701, 367, 372
887, 373, 372, 368
888, 374, 373, 368
889, 545, 374, 368
890, 370, 492, 369
891, 557, 369, 492
892, 636, 369, 557
893, 370, 493, 492
894, 370, 649, 493
895, 370, 722, 649
896, 371, 610, 640
897, 701, 610, 371
898, 640, 649, 371
899, 649, 722, 371
900, 373, 669, 372
901, 372, 669, 609
902, 372, 609, 701
903, 375, 373, 374
904, 375, 396, 373
905, 396, 669, 373
906, 375, 374, 376
907, 374, 521, 376
908, 374, 545, 521
909, 375, 376, 379
910, 678, 375, 379
911, 396, 375, 678
912, 379, 376, 385
913, 376, 540, 385
914, 376, 521, 540
915, 378, 377, 380
916, 380, 377, 381
917, 381, 377, 761
918, 380, 384, 378
919, 450, 378, 384
920, 657, 378, 450
921, 385, 386, 379
922, 386, 393, 379
923, 393, 678, 379
924, 380, 381, 382
925, 618, 380, 382
926, 384, 380, 618
927, 383, 382, 381
928, 383, 381, 617
929, 761, 617, 381
930, 383, 388, 382
931, 388, 452, 382
932, 452, 618, 382
933, 388, 383, 389
934, 383, 439, 389
935, 439, 383, 617
936, 384, 451, 450
937, 384, 613, 451
938, 613, 384, 618
939, 386, 385, 387
940, 491, 387, 385
941, 385, 755, 491
942, 755, 385, 540
943, 390, 386, 387
944, 390, 686, 386
945, 393, 386, 686
946, 392, 390, 387
947, 387, 523, 392
948, 523, 387, 491
949, 388, 389, 685
950, 453, 452, 388
951, 685, 453, 388
952, 389, 439, 440
953, 440, 441, 389
954, 685, 389, 441
955, 392, 394, 390
956, 394, 442, 390
957, 686, 390, 442
958, 658, 403, 391
959, 658, 391, 708
960, 392, 395, 394
961, 392, 555, 395
962, 523, 555, 392
963, 631, 678, 393
964, 393, 747, 631
965, 747, 393, 686
966, 395, 397, 394
967, 397, 714, 394
968, 442, 394, 714
969, 397, 395, 398
970, 400, 398, 395
971, 395, 749, 400
972, 749, 395, 555
973, 396, 645, 669
974, 396, 670, 645
975, 670, 396, 678
976, 398, 644, 397
977, 397, 644, 643
978, 714, 397, 643
979, 400, 401, 398
980, 401, 413, 398
981, 398, 413, 644
982, 399, 402, 602
983, 399, 602, 516
984, 404, 401, 400
985, 404, 400, 571
986, 400, 749, 571
987, 401, 404, 405
988, 677, 401, 405
989, 401, 677, 413
990, 650, 402, 403
991, 616, 602, 402
992, 402, 650, 616
993, 658, 579, 403
994, 403, 579, 738
995, 403, 738, 650
996, 404, 406, 405
997, 550, 406, 404
998, 404, 571, 550
999, 406, 407, 405
1000, 405, 407, 436
1001, 436, 677, 405
1002, 406, 408, 407
1003, 408, 406, 465
1004, 406, 550, 465
1005, 409, 407, 408
1006, 409, 681, 407
1007, 681, 436, 407
1008, 408, 410, 409
1009, 408, 546, 410
1010, 408, 465, 546
1011, 410, 411, 409
1012, 409, 411, 437
1013, 437, 681, 409
1014, 412, 411, 410
1015, 410, 414, 412
1016, 414, 410, 546
1017, 412, 668, 411
1018, 411, 438, 437
1019, 668, 438, 411
1020, 414, 415, 412
1021, 415, 416, 412
1022, 416, 668, 412
1023, 661, 644, 413
1024, 413, 662, 661
1025, 413, 677, 662
1026, 414, 697, 415
1027, 595, 414, 546
1028, 414, 595, 596
1029, 697, 414, 596
1030, 417, 416, 415
1031, 418, 417, 415
1032, 697, 418, 415
1033, 455, 416, 417
1034, 455, 694, 416
1035, 694, 668, 416
1036, 419, 417, 418
1037, 419, 648, 417
1038, 648, 455, 417
1039, 419, 418, 420
1040, 418, 758, 420
1041, 418, 697, 549
1042, 758, 418, 549
1043, 419, 420, 421
1044, 421, 679, 419
1045, 419, 679, 648
1046, 422, 421, 420
1047, 422, 420, 742
1048, 758, 742, 420
1049, 421, 422, 423
1050, 421, 423, 424
1051, 421, 424, 679
1052, 428, 423, 422
1053, 458, 428, 422
1054, 422, 513, 458
1055, 513, 422, 742
1056, 423, 427, 424
1057, 427, 423, 635
1058, 635, 423, 428
1059, 427, 429, 424
1060, 424, 429, 434
1061, 679, 424, 434
1062, 425, 430, 426
1063, 425, 431, 430
1064, 425, 656, 431
1065, 426, 430, 432
1066, 426, 432, 433
1067, 629, 426, 433
1068, 427, 466, 429
1069, 466, 427, 506
1070, 427, 635, 506
1071, 459, 428, 458
1072, 428, 459, 460
1073, 428, 460, 635
1074, 434, 429, 435
1075, 435, 429, 666
1076, 466, 666, 429
1077, 623, 430, 431
1078, 430, 467, 432
1079, 623, 467, 430
1080, 431, 624, 623
1081, 625, 624, 431
1082, 431, 656, 625
1083, 443, 433, 432
1084, 443, 432, 473
1085, 432, 467, 473
1086, 433, 443, 444
1087, 529, 433, 444
1088, 629, 433, 529
1089, 434, 435, 470
1090, 659, 434, 470
1091, 659, 648, 434
1092, 679, 434, 648
1093, 484, 470, 435
1094, 484, 435, 525
1095, 525, 435, 666
1096, 436, 700, 677
1097, 681, 700, 436
1098, 495, 437, 438
1099, 495, 539, 437
1100, 437, 539, 681
1101, 495, 438, 496
1102, 438, 514, 496
1103, 668, 514, 438
1104, 616, 440, 439
1105, 748, 616, 439
1106, 748, 439, 617
1107, 468, 441, 440
1108, 440, 494, 468
1109, 494, 440, 616
1110, 468, 469, 441
1111, 441, 469, 583
1112, 441, 583, 685
1113, 442, 642, 630
1114, 442, 630, 747
1115, 442, 714, 642
1116, 442, 747, 686
1117, 444, 443, 472
1118, 443, 473, 472
1119, 472, 475, 444
1120, 603, 444, 475
1121, 529, 444, 603
1122, 445, 446, 675
1123, 445, 489, 488
1124, 445, 675, 489
1125, 447, 449, 446
1126, 446, 449, 675
1127, 448, 584, 447
1128, 447, 584, 449
1129, 653, 448, 505
1130, 584, 448, 667
1131, 667, 448, 653
1132, 584, 693, 449
1133, 675, 449, 716
1134, 449, 693, 716
1135, 451, 503, 450
1136, 503, 660, 450
1137, 660, 657, 450
1138, 504, 503, 451
1139, 504, 451, 724
1140, 724, 451, 613
1141, 452, 453, 454
1142, 454, 613, 452
1143, 613, 618, 452
1144, 454, 453, 457
1145, 583, 457, 453
1146, 453, 685, 583
1147, 454, 457, 471
1148, 471, 547, 454
1149, 613, 454, 547
1150, 659, 526, 455
1151, 526, 694, 455
1152, 648, 659, 455
1153, 564, 482, 456
1154, 456, 563, 564
1155, 457, 511, 471
1156, 457, 570, 511
1157, 457, 583, 570
1158, 458, 461, 459
1159, 461, 458, 512
1160, 458, 513, 512
1161, 459, 612, 460
1162, 462, 459, 461
1163, 612, 459, 462
1164, 612, 744, 460
1165, 460, 756, 635
1166, 744, 756, 460
1167, 461, 591, 462
1168, 512, 552, 461
1169, 461, 552, 591
1170, 591, 674, 462
1171, 733, 612, 462
1172, 674, 736, 462
1173, 733, 462, 736
1174, 463, 478, 464
1175, 478, 463, 632
1176, 528, 632, 463
1177, 479, 464, 478
1178, 480, 464, 479
1179, 464, 480, 633
1180, 465, 713, 546
1181, 695, 465, 550
1182, 695, 590, 465
1183, 713, 465, 590
1184, 506, 507, 466
1185, 544, 466, 507
1186, 466, 544, 666
1187, 467, 486, 473
1188, 487, 486, 467
1189, 623, 487, 467
1190, 468, 476, 469
1191, 476, 468, 652
1192, 494, 652, 468
1193, 485, 469, 476
1194, 469, 485, 583
1195, 527, 470, 484
1196, 721, 470, 527
1197, 721, 659, 470
1198, 731, 471, 511
1199, 471, 676, 547
1200, 471, 731, 676
1201, 474, 472, 473
1202, 472, 474, 475
1203, 717, 474, 473
1204, 717, 473, 486
1205, 474, 477, 475
1206, 474, 595, 477
1207, 596, 595, 474
1208, 717, 596, 474
1209, 475, 477, 559
1210, 579, 475, 559
1211, 475, 579, 603
1212, 485, 476, 695
1213, 559, 590, 476
1214, 750, 559, 476
1215, 590, 695, 476
1216, 750, 476, 652
1217, 590, 559, 477
1218, 477, 713, 590
1219, 595, 713, 477
1220, 478, 481, 479
1221, 478, 601, 481
1222, 478, 632, 601
1223, 479, 622, 480
1224, 479, 481, 500
1225, 479, 500, 622
1226, 480, 622, 655
1227, 480, 684, 633
1228, 480, 655, 684
1229, 481, 501, 500
1230, 481, 530, 501
1231, 481, 601, 530
1232, 482, 557, 483
1233, 592, 557, 482
1234, 564, 715, 482
1235, 482, 715, 592
1236, 680, 483, 557
1237, 483, 586, 585
1238, 483, 680, 586
1239, 484, 525, 728
1240, 484, 556, 527
1241, 556, 484, 728
1242, 485, 550, 570
1243, 485, 695, 550
1244, 583, 485, 570
1245, 487, 548, 486
1246, 548, 549, 486
1247, 549, 717, 486
1248, 548, 487, 751
1249, 487, 623, 624
1250, 487, 624, 683
1251, 487, 683, 751
1252, 490, 488, 489
1253, 488, 490, 597
1254, 703, 488, 597
1255, 489, 541, 490
1256, 541, 489, 730
1257, 489, 675, 730
1258, 490, 541, 542
1259, 542, 543, 490
1260, 597, 490, 543
1261, 523, 491, 676
1262, 551, 673, 491
1263, 755, 551, 491
1264, 676, 491, 673
1265, 493, 518, 492
1266, 680, 492, 518
1267, 557, 492, 680
1268, 493, 519, 518
1269, 520, 519, 493
1270, 520, 493, 649
1271, 616, 650, 494
1272, 651, 494, 650
1273, 651, 652, 494
1274, 691, 495, 496
1275, 561, 539, 495
1276, 561, 495, 691
1277, 515, 496, 514
1278, 515, 517, 496
1279, 691, 496, 517
1280, 727, 497, 654
1281, 727, 719, 497
1282, 567, 566, 498
1283, 498, 566, 690
1284, 498, 568, 567
1285, 498, 710, 568
1286, 646, 499, 672
1287, 745, 672, 499
1288, 499, 707, 745
1289, 501, 674, 500
1290, 500, 674, 622
1291, 530, 531, 501
1292, 532, 501, 531
1293, 532, 674, 501
1294, 505, 502, 734
1295, 699, 660, 502
1296, 734, 502, 660
1297, 737, 699, 502
1298, 653, 503, 504
1299, 734, 503, 653
1300, 734, 660, 503
1301, 551, 653, 504
1302, 551, 504, 673
1303, 673, 504, 724
1304, 505, 734, 653
1305, 508, 507, 506
1306, 615, 508, 506
1307, 756, 615, 506
1308, 756, 506, 635
1309, 508, 509, 507
1310, 507, 509, 647
1311, 507, 647, 544
1312, 600, 509, 508
1313, 600, 508, 641
1314, 641, 508, 615
1315, 509, 567, 568
1316, 567, 509, 600
1317, 647, 509, 568
1318, 564, 639, 510
1319, 564, 510, 715
1320, 510, 671, 621
1321, 639, 671, 510
1322, 555, 731, 511
1323, 511, 749, 555
1324, 511, 570, 571
1325, 749, 511, 571
1326, 683, 512, 513
1327, 552, 512, 688
1328, 512, 683, 553
1329, 688, 512, 553
1330, 751, 683, 513
1331, 513, 742, 751
1332, 526, 515, 514
1333, 694, 526, 514
1334, 668, 694, 514
1335, 589, 517, 515
1336, 526, 682, 515
1337, 682, 589, 515
1338, 617, 599, 516
1339, 602, 748, 516
1340, 617, 516, 748
1341, 517, 589, 729
1342, 664, 517, 729
1343, 517, 664, 754
1344, 517, 754, 691
1345, 560, 518, 519
1346, 560, 725, 518
1347, 680, 518, 586
1348, 518, 725, 586
1349, 520, 558, 519
1350, 558, 672, 519
1351, 519, 672, 560
1352, 558, 520, 665
1353, 640, 520, 649
1354, 640, 665, 520
1355, 521, 667, 540
1356, 545, 693, 521
1357, 667, 521, 584
1358, 584, 521, 693
1359, 578, 522, 716
1360, 757, 522, 578
1361, 522, 675, 716
1362, 730, 675, 522
1363, 523, 731, 555
1364, 731, 523, 676
1365, 657, 699, 524
1366, 699, 737, 524
1367, 737, 705, 524
1368, 525, 706, 638
1369, 728, 525, 638
1370, 525, 666, 706
1371, 721, 526, 659
1372, 682, 526, 721
1373, 527, 682, 721
1374, 528, 718, 632
1375, 528, 712, 718
1376, 529, 603, 658
1377, 529, 708, 629
1378, 708, 529, 658
1379, 531, 530, 743
1380, 587, 743, 530
1381, 587, 530, 746
1382, 601, 746, 530
1383, 531, 537, 532
1384, 531, 696, 537
1385, 531, 743, 696
1386, 537, 538, 532
1387, 538, 736, 532
1388, 532, 736, 674
1389, 711, 533, 534
1390, 565, 533, 741
1391, 741, 533, 711
1392, 535, 536, 534
1393, 702, 534, 536
1394, 534, 702, 711
1395, 535, 641, 536
1396, 580, 581, 535
1397, 641, 535, 581
1398, 641, 615, 536
1399, 744, 536, 615
1400, 536, 744, 702
1401, 538, 537, 711
1402, 537, 696, 741
1403, 741, 711, 537
1404, 538, 711, 702
1405, 538, 702, 733
1406, 736, 538, 733
1407, 539, 561, 562
1408, 700, 539, 562
1409, 539, 700, 681
1410, 540, 667, 755
1411, 541, 739, 542
1412, 541, 730, 739
1413, 543, 542, 723
1414, 723, 542, 614
1415, 614, 542, 739
1416, 543, 663, 582
1417, 543, 723, 663
1418, 544, 647, 706
1419, 706, 666, 544
1420, 578, 716, 545
1421, 693, 545, 716
1422, 713, 595, 546
1423, 613, 547, 724
1424, 547, 676, 673
1425, 547, 673, 724
1426, 548, 758, 549
1427, 742, 548, 751
1428, 548, 742, 758
1429, 549, 697, 596
1430, 549, 596, 717
1431, 570, 550, 571
1432, 653, 551, 667
1433, 551, 755, 667
1434, 552, 554, 684
1435, 552, 688, 554
1436, 552, 655, 591
1437, 552, 684, 655
1438, 625, 553, 624
1439, 683, 624, 553
1440, 625, 735, 553
1441, 688, 553, 735
1442, 726, 554, 634
1443, 634, 554, 735
1444, 726, 684, 554
1445, 554, 688, 735
1446, 557, 592, 636
1447, 646, 672, 558
1448, 750, 579, 559
1449, 672, 745, 560
1450, 561, 732, 562
1451, 561, 691, 754
1452, 732, 561, 754
1453, 562, 593, 662
1454, 732, 593, 562
1455, 700, 562, 662
1456, 639, 564, 563
1457, 565, 741, 696
1458, 710, 647, 568
1459, 707, 569, 745
1460, 572, 593, 732
1461, 574, 759, 573
1462, 574, 575, 642
1463, 642, 643, 574
1464, 574, 643, 759
1465, 576, 577, 575
1466, 577, 630, 575
1467, 630, 642, 575
1468, 752, 577, 576
1469, 630, 577, 631
1470, 740, 631, 577
1471, 577, 752, 740
1472, 658, 603, 579
1473, 579, 750, 738
1474, 581, 580, 720
1475, 600, 641, 581
1476, 687, 585, 586
1477, 586, 725, 687
1478, 587, 746, 627
1479, 628, 689, 588
1480, 689, 671, 588
1481, 655, 622, 591
1482, 622, 674, 591
1483, 592, 704, 636
1484, 715, 704, 592
1485, 594, 661, 593
1486, 593, 661, 662
1487, 594, 760, 661
1488, 759, 760, 594
1489, 703, 597, 598
1490, 761, 599, 617
1491, 616, 748, 602
1492, 605, 740, 604
1493, 604, 740, 752
1494, 606, 645, 605
1495, 670, 605, 645
1496, 605, 670, 740
1497, 608, 606, 607
1498, 609, 606, 608
1499, 645, 606, 609
1500, 608, 607, 637
1501, 610, 609, 608
1502, 610, 608, 611
1503, 608, 637, 611
1504, 701, 609, 610
1505, 669, 645, 609
1506, 610, 611, 640
1507, 611, 637, 709
1508, 640, 611, 665
1509, 611, 709, 665
1510, 612, 733, 702
1511, 612, 702, 744
1512, 744, 615, 756
1513, 620, 619, 621
1514, 620, 621, 689
1515, 620, 689, 628
1516, 621, 671, 689
1517, 634, 625, 656
1518, 625, 634, 735
1519, 626, 634, 656
1520, 698, 629, 708
1521, 747, 630, 631
1522, 678, 631, 670
1523, 740, 670, 631
1524, 633, 684, 726
1525, 692, 633, 726
1526, 714, 643, 642
1527, 644, 760, 643
1528, 760, 759, 643
1529, 661, 760, 644
1530, 651, 650, 738
1531, 651, 750, 652
1532, 651, 738, 750
1533, 699, 657, 660
1534, 700, 662, 677
1535, 768, 762, 1041
1536, 791, 792, 762
1537, 1041, 762, 792
1538, 769, 1147, 763
1539, 794, 793, 763
1540, 794, 763, 1147
1541, 991, 764, 990
1542, 991, 992, 764
1543, 1039, 764, 992
1544, 769, 765, 1082
1545, 787, 765, 777
1546, 765, 787, 1082
1547, 828, 766, 1113
1548, 1019, 1200, 766
1549, 1102, 1113, 766
1550, 1200, 1102, 766
1551, 1055, 767, 768
1552, 785, 775, 767
1553, 785, 767, 1055
1554, 1041, 1004, 768
1555, 1054, 768, 1004
1556, 768, 1054, 1055
1557, 769, 1082, 1089
1558, 1089, 1199, 769
1559, 1147, 769, 1199
1560, 770, 1023, 1126
1561, 1125, 1045, 770
1562, 770, 1126, 1125
1563, 771, 1169, 1024
1564, 1168, 771, 1044
1565, 1169, 771, 1168
1566, 772, 860, 848
1567, 772, 859, 860
1568, 773, 796, 816
1569, 816, 834, 773
1570, 834, 1218, 773
1571, 1056, 773, 1218
1572, 1061, 774, 1060
1573, 1062, 774, 1061
1574, 774, 1062, 1063
1575, 775, 785, 786
1576, 786, 1163, 775
1577, 776, 1018, 984
1578, 984, 1136, 776
1579, 776, 1136, 1046
1580, 777, 788, 787
1581, 788, 777, 1156
1582, 1049, 778, 1031
1583, 778, 1210, 1032
1584, 778, 1049, 1050
1585, 778, 1050, 1210
1586, 779, 1084, 1076
1587, 779, 1076, 1205
1588, 1101, 1177, 779
1589, 1205, 1101, 779
1590, 1057, 1083, 780
1591, 1092, 1057, 780
1592, 780, 1178, 1092
1593, 781, 1164, 1093
1594, 1162, 1107, 781
1595, 1107, 1164, 781
1596, 782, 1007, 1111
1597, 782, 1149, 1007
1598, 1067, 1212, 782
1599, 1212, 1149, 782
1600, 1146, 1021, 783
1601, 1021, 1187, 783
1602, 1187, 1031, 783
1603, 1119, 1146, 783
1604, 1033, 784, 1032
1605, 784, 1033, 1034
1606, 1034, 1035, 784
1607, 785, 803, 786
1608, 1094, 803, 785
1609, 1094, 785, 1055
1610, 803, 813, 786
1611, 1194, 786, 813
1612, 1163, 786, 1194
1613, 882, 787, 788
1614, 787, 882, 1108
1615, 787, 1108, 1082
1616, 788, 883, 882
1617, 788, 1085, 883
1618, 1156, 1085, 788
1619, 1029, 1025, 789
1620, 1029, 789, 1096
1621, 1040, 1096, 789
1622, 1040, 789, 1137
1623, 1019, 790, 1181
1624, 790, 1026, 1051
1625, 790, 1051, 1114
1626, 1181, 790, 1114
1627, 791, 797, 792
1628, 791, 953, 797
1629, 797, 798, 792
1630, 792, 798, 1118
1631, 792, 1118, 1041
1632, 919, 793, 794
1633, 919, 985, 793
1634, 985, 1172, 793
1635, 920, 919, 794
1636, 1088, 920, 794
1637, 1147, 1088, 794
1638, 795, 848, 1167
1639, 1167, 1156, 795
1640, 796, 981, 816
1641, 796, 1163, 981
1642, 799, 798, 797
1643, 1205, 799, 797
1644, 1101, 797, 953
1645, 797, 1101, 1205
1646, 799, 800, 798
1647, 800, 801, 798
1648, 1118, 798, 801
1649, 1075, 800, 799
1650, 1076, 1075, 799
1651, 799, 1205, 1076
1652, 802, 801, 800
1653, 802, 800, 804
1654, 1075, 804, 800
1655, 801, 802, 1070
1656, 801, 1070, 1182
1657, 1118, 801, 1182
1658, 805, 802, 804
1659, 805, 806, 802
1660, 806, 1070, 802
1661, 814, 813, 803
1662, 814, 803, 818
1663, 1094, 818, 803
1664, 805, 804, 815
1665, 804, 975, 815
1666, 1075, 975, 804
1667, 806, 805, 807
1668, 815, 807, 805
1669, 806, 807, 808
1670, 808, 1185, 806
1671, 806, 1003, 1070
1672, 1003, 806, 1185
1673, 807, 809, 808
1674, 807, 927, 809
1675, 815, 927, 807
1676, 809, 810, 808
1677, 979, 808, 810
1678, 1185, 808, 979
1679, 809, 811, 810
1680, 809, 954, 811
1681, 809, 927, 954
1682, 810, 811, 812
1683, 810, 812, 1208
1684, 979, 810, 1208
1685, 811, 820, 812
1686, 825, 820, 811
1687, 811, 954, 825
1688, 820, 821, 812
1689, 812, 821, 822
1690, 812, 822, 1208
1691, 817, 813, 814
1692, 817, 960, 813
1693, 960, 1194, 813
1694, 814, 1078, 817
1695, 819, 814, 818
1696, 819, 1078, 814
1697, 1142, 927, 815
1698, 815, 975, 976
1699, 1142, 815, 976
1700, 834, 816, 835
1701, 1109, 835, 816
1702, 981, 1109, 816
1703, 963, 817, 905
1704, 1078, 905, 817
1705, 963, 960, 817
1706, 818, 902, 819
1707, 818, 946, 902
1708, 1094, 946, 818
1709, 819, 902, 903
1710, 904, 819, 903
1711, 819, 904, 1078
1712, 1144, 821, 820
1713, 820, 825, 826
1714, 820, 826, 1144
1715, 823, 822, 821
1716, 827, 823, 821
1717, 827, 821, 1144
1718, 822, 823, 824
1719, 824, 1006, 822
1720, 1006, 1037, 822
1721, 1037, 1208, 822
1722, 829, 824, 823
1723, 827, 1124, 823
1724, 823, 1124, 829
1725, 829, 830, 824
1726, 830, 831, 824
1727, 831, 1006, 824
1728, 939, 826, 825
1729, 939, 825, 943
1730, 954, 943, 825
1731, 939, 940, 826
1732, 998, 826, 940
1733, 998, 1144, 826
1734, 1124, 827, 1066
1735, 1196, 1066, 827
1736, 1144, 1196, 827
1737, 1091, 1023, 828
1738, 1091, 828, 1113
1739, 830, 829, 1154
1740, 829, 1124, 1065
1741, 1154, 829, 1065
1742, 831, 830, 832
1743, 853, 832, 830
1744, 853, 830, 1154
1745, 831, 832, 833
1746, 978, 831, 833
1747, 1006, 831, 978
1748, 836, 833, 832
1749, 1133, 836, 832
1750, 1133, 832, 853
1751, 833, 836, 842
1752, 997, 833, 842
1753, 833, 997, 978
1754, 835, 837, 834
1755, 834, 837, 838
1756, 1218, 834, 838
1757, 837, 835, 841
1758, 835, 907, 841
1759, 835, 1109, 907
1760, 842, 836, 843
1761, 836, 850, 843
1762, 1133, 850, 836
1763, 838, 837, 839
1764, 839, 837, 1074
1765, 837, 841, 1074
1766, 839, 840, 838
1767, 1073, 838, 840
1768, 1073, 1218, 838
1769, 840, 839, 845
1770, 845, 839, 909
1771, 839, 1074, 909
1772, 845, 846, 840
1773, 840, 846, 896
1774, 840, 896, 1073
1775, 907, 908, 841
1776, 841, 908, 1069
1777, 1069, 1074, 841
1778, 843, 844, 842
1779, 949, 842, 844
1780, 949, 1207, 842
1781, 1207, 997, 842
1782, 847, 844, 843
1783, 1140, 847, 843
1784, 850, 1140, 843
1785, 847, 849, 844
1786, 849, 980, 844
1787, 980, 949, 844
1788, 1139, 846, 845
1789, 910, 845, 909
1790, 1139, 845, 910
1791, 896, 846, 897
1792, 846, 898, 897
1793, 1139, 898, 846
1794, 849, 847, 851
1795, 851, 847, 899
1796, 1140, 899, 847
1797, 860, 1103, 848
1798, 848, 1103, 1167
1799, 849, 851, 852
1800, 1017, 849, 852
1801, 980, 849, 1017
1802, 1087, 850, 1133
1803, 850, 1087, 1202
1804, 1202, 1140, 850
1805, 851, 854, 852
1806, 1174, 854, 851
1807, 899, 1174, 851
1808, 854, 855, 852
1809, 857, 852, 855
1810, 852, 857, 1204
1811, 852, 1204, 1017
1812, 1148, 853, 1095
1813, 853, 1154, 1095
1814, 1148, 1133, 853
1815, 855, 854, 1099
1816, 1098, 1099, 854
1817, 1098, 854, 1174
1818, 855, 858, 857
1819, 870, 858, 855
1820, 855, 1099, 870
1821, 859, 856, 1058
1822, 856, 973, 1058
1823, 857, 858, 861
1824, 857, 861, 1028
1825, 1028, 1204, 857
1826, 858, 862, 861
1827, 862, 858, 1132
1828, 870, 1132, 858
1829, 1105, 860, 859
1830, 1105, 859, 1058
1831, 860, 1038, 1103
1832, 860, 1104, 1038
1833, 860, 1105, 1104
1834, 861, 862, 863
1835, 1012, 861, 863
1836, 1201, 861, 1012
1837, 1201, 1028, 861
1838, 862, 864, 863
1839, 864, 862, 893
1840, 862, 1132, 893
1841, 863, 864, 865
1842, 921, 863, 865
1843, 921, 1012, 863
1844, 864, 866, 865
1845, 866, 864, 1135
1846, 1135, 864, 893
1847, 866, 867, 865
1848, 1008, 865, 867
1849, 921, 865, 1008
1850, 868, 867, 866
1851, 866, 894, 868
1852, 1135, 894, 866
1853, 868, 869, 867
1854, 869, 871, 867
1855, 1008, 867, 871
1856, 869, 868, 1122
1857, 868, 894, 895
1858, 1122, 868, 895
1859, 871, 869, 872
1860, 869, 873, 872
1861, 873, 869, 1122
1862, 1099, 1115, 870
1863, 1115, 1116, 870
1864, 1132, 870, 1116
1865, 871, 872, 1155
1866, 1052, 1008, 871
1867, 1053, 1052, 871
1868, 1155, 1053, 871
1869, 872, 873, 874
1870, 875, 872, 874
1871, 875, 1155, 872
1872, 874, 873, 912
1873, 873, 1152, 912
1874, 1152, 873, 1122
1875, 876, 875, 874
1876, 876, 874, 1100
1877, 912, 1100, 874
1878, 876, 877, 875
1879, 1209, 875, 877
1880, 1155, 875, 1011
1881, 875, 1209, 1011
1882, 877, 876, 878
1883, 878, 876, 1134
1884, 1134, 876, 1100
1885, 877, 878, 879
1886, 877, 879, 1197
1887, 877, 1197, 1209
1888, 878, 880, 879
1889, 880, 878, 881
1890, 1134, 881, 878
1891, 880, 885, 879
1892, 914, 879, 885
1893, 879, 914, 970
1894, 970, 1197, 879
1895, 880, 881, 884
1896, 884, 1090, 880
1897, 885, 880, 1090
1898, 886, 884, 881
1899, 891, 886, 881
1900, 881, 1134, 891
1901, 883, 887, 882
1902, 882, 887, 888
1903, 882, 888, 1108
1904, 889, 887, 883
1905, 883, 890, 889
1906, 883, 1085, 890
1907, 886, 922, 884
1908, 884, 922, 964
1909, 964, 1090, 884
1910, 885, 915, 914
1911, 885, 916, 915
1912, 885, 1090, 916
1913, 886, 891, 892
1914, 1120, 886, 892
1915, 886, 1120, 922
1916, 887, 1079, 888
1917, 887, 889, 923
1918, 887, 923, 1079
1919, 1080, 888, 1079
1920, 888, 1080, 1081
1921, 1108, 888, 1081
1922, 890, 900, 889
1923, 900, 930, 889
1924, 923, 889, 930
1925, 901, 900, 890
1926, 986, 901, 890
1927, 1085, 986, 890
1928, 891, 926, 892
1929, 891, 1110, 926
1930, 1110, 891, 1100
1931, 1134, 1100, 891
1932, 926, 941, 892
1933, 941, 982, 892
1934, 892, 982, 1120
1935, 893, 1132, 1158
1936, 1158, 1135, 893
1937, 895, 894, 951
1938, 951, 894, 996
1939, 1135, 996, 894
1940, 895, 951, 952
1941, 971, 895, 952
1942, 895, 971, 1122
1943, 1072, 896, 897
1944, 1072, 1203, 896
1945, 1073, 896, 1203
1946, 898, 924, 897
1947, 924, 950, 897
1948, 897, 950, 1072
1949, 898, 925, 924
1950, 1042, 925, 898
1951, 1042, 898, 1139
1952, 1097, 899, 1086
1953, 899, 1202, 1086
1954, 899, 1097, 1174
1955, 899, 1140, 1202
1956, 900, 901, 929
1957, 900, 929, 930
1958, 901, 932, 929
1959, 1059, 932, 901
1960, 1059, 901, 986
1961, 1130, 903, 902
1962, 902, 946, 947
1963, 1130, 902, 947
1964, 903, 906, 904
1965, 903, 1130, 906
1966, 905, 904, 1043
1967, 1078, 904, 905
1968, 1043, 904, 906
1969, 963, 905, 1106
1970, 1043, 1121, 905
1971, 905, 1121, 1106
1972, 1150, 1043, 906
1973, 1130, 1215, 906
1974, 906, 1175, 1150
1975, 906, 1215, 1175
1976, 907, 961, 908
1977, 907, 1112, 961
1978, 1112, 907, 1109
1979, 908, 961, 962
1980, 908, 962, 1069
1981, 911, 910, 909
1982, 911, 909, 1069
1983, 1069, 909, 1074
1984, 910, 911, 913
1985, 913, 1042, 910
1986, 1139, 910, 1042
1987, 911, 928, 913
1988, 911, 1009, 928
1989, 1009, 911, 1069
1990, 1110, 912, 983
1991, 1152, 983, 912
1992, 912, 1110, 1100
1993, 968, 913, 928
1994, 968, 1027, 913
1995, 1027, 1042, 913
1996, 917, 914, 915
1997, 914, 917, 969
1998, 970, 914, 969
1999, 916, 1068, 915
2000, 917, 915, 918
2001, 915, 1068, 918
2002, 916, 1213, 1068
2003, 1090, 1195, 916
2004, 916, 1195, 1213
2005, 917, 918, 1048
2006, 917, 1014, 969
2007, 1014, 917, 1048
2008, 1048, 918, 1128
2009, 1189, 918, 1068
2010, 918, 1192, 1128
2011, 918, 1189, 1192
2012, 935, 919, 920
2013, 919, 935, 1092
2014, 1092, 985, 919
2015, 935, 920, 936
2016, 936, 920, 937
2017, 1088, 937, 920
2018, 921, 1008, 1173
2019, 921, 1153, 1012
2020, 1153, 921, 1047
2021, 921, 1173, 1047
2022, 965, 964, 922
2023, 1005, 965, 922
2024, 1005, 922, 1120
2025, 944, 923, 930
2026, 945, 923, 944
2027, 923, 945, 1079
2028, 925, 933, 924
2029, 933, 1159, 924
2030, 950, 924, 1159
2031, 933, 925, 942
2032, 1042, 942, 925
2033, 941, 926, 984
2034, 984, 926, 1171
2035, 1110, 1171, 926
2036, 954, 927, 955
2037, 1142, 955, 927
2038, 1186, 968, 928
2039, 928, 1009, 1129
2040, 1129, 1186, 928
2041, 930, 929, 931
2042, 929, 932, 931
2043, 930, 931, 1176
2044, 944, 930, 1176
2045, 932, 934, 931
2046, 931, 934, 1052
2047, 1053, 931, 1052
2048, 1176, 931, 1053
2049, 932, 1020, 934
2050, 1020, 932, 1038
2051, 1038, 932, 1059
2052, 942, 1153, 933
2053, 933, 1047, 1020
2054, 1159, 933, 1020
2055, 1153, 1047, 933
2056, 1020, 1047, 934
2057, 934, 1047, 1173
2058, 1173, 1052, 934
2059, 935, 936, 938
2060, 935, 938, 1057
2061, 935, 1057, 1092
2062, 936, 937, 1077
2063, 936, 958, 938
2064, 936, 1077, 958
2065, 1117, 1077, 937
2066, 1123, 937, 1088
2067, 937, 1123, 1117
2068, 958, 959, 938
2069, 959, 987, 938
2070, 1057, 938, 987
2071, 1180, 940, 939
2072, 974, 939, 943
2073, 974, 1180, 939
2074, 998, 940, 999
2075, 1000, 999, 940
2076, 1180, 1000, 940
2077, 1183, 982, 941
2078, 941, 984, 1018
2079, 941, 1018, 1183
2080, 1012, 1153, 942
2081, 1201, 1012, 942
2082, 1042, 1027, 942
2083, 1027, 1201, 942
2084, 943, 954, 955
2085, 1102, 943, 955
2086, 1200, 974, 943
2087, 1102, 1200, 943
2088, 945, 944, 1010
2089, 1011, 1010, 944
2090, 1176, 1011, 944
2091, 945, 1010, 1206
2092, 945, 1080, 1079
2093, 1080, 945, 1138
2094, 1206, 1138, 945
2095, 946, 948, 947
2096, 946, 1054, 948
2097, 1054, 946, 1094
2098, 948, 1002, 947
2099, 1002, 1185, 947
2100, 947, 1185, 1130
2101, 948, 1003, 1002
2102, 1004, 1003, 948
2103, 948, 1054, 1004
2104, 980, 1129, 949
2105, 1013, 949, 1127
2106, 1013, 1207, 949
2107, 1129, 1127, 949
2108, 1105, 1072, 950
2109, 950, 1104, 1105
2110, 950, 1159, 1104
2111, 1146, 952, 951
2112, 996, 1021, 951
2113, 1146, 951, 1021
2114, 972, 971, 952
2115, 952, 977, 972
2116, 952, 1146, 977
2117, 953, 1177, 1101
2118, 1113, 1102, 955
2119, 1113, 955, 1142
2120, 1029, 956, 1025
2121, 1166, 1025, 956
2122, 1030, 956, 1029
2123, 956, 1030, 1211
2124, 957, 1051, 1026
2125, 1026, 1145, 957
2126, 1051, 957, 1165
2127, 957, 1111, 1165
2128, 958, 1128, 959
2129, 958, 1077, 1128
2130, 988, 987, 959
2131, 959, 989, 988
2132, 1128, 989, 959
2133, 960, 963, 1190
2134, 1112, 1157, 960
2135, 1190, 1112, 960
2136, 1194, 960, 1157
2137, 962, 961, 1106
2138, 1190, 1106, 961
2139, 1190, 961, 1112
2140, 962, 1009, 1069
2141, 1127, 1009, 962
2142, 1106, 1013, 962
2143, 1013, 1127, 962
2144, 963, 1106, 1190
2145, 964, 965, 966
2146, 1071, 964, 966
2147, 1195, 964, 1071
2148, 1090, 964, 1195
2149, 965, 967, 966
2150, 965, 1107, 967
2151, 1005, 1107, 965
2152, 966, 967, 1096
2153, 1143, 1071, 966
2154, 1143, 966, 1096
2155, 967, 1030, 1029
2156, 967, 1029, 1096
2157, 967, 1107, 1030
2158, 1186, 1017, 968
2159, 968, 1017, 1204
2160, 1027, 968, 1028
2161, 968, 1204, 1028
2162, 969, 1138, 970
2163, 1141, 969, 1014
2164, 1138, 969, 1015
2165, 1141, 1015, 969
2166, 1206, 970, 1138
2167, 1197, 970, 1206
2168, 972, 983, 971
2169, 1152, 971, 983
2170, 971, 1152, 1122
2171, 972, 977, 1046
2172, 972, 1136, 983
2173, 1046, 1136, 972
2174, 1073, 973, 1056
2175, 1203, 1058, 973
2176, 973, 1073, 1203
2177, 1114, 1180, 974
2178, 1181, 1114, 974
2179, 1200, 1181, 974
2180, 975, 1125, 976
2181, 1075, 1076, 975
2182, 975, 1076, 1151
2183, 1125, 975, 1151
2184, 976, 1126, 1091
2185, 1142, 976, 1091
2186, 1126, 976, 1125
2187, 1046, 977, 1184
2188, 977, 1146, 1119
2189, 1119, 1184, 977
2190, 997, 1121, 978
2191, 1006, 978, 1150
2192, 1043, 978, 1121
2193, 978, 1043, 1150
2194, 1130, 1185, 979
2195, 1130, 979, 1215
2196, 1215, 979, 1208
2197, 1017, 1186, 980
2198, 1186, 1129, 980
2199, 1109, 981, 1157
2200, 1157, 981, 1194
2201, 981, 1163, 1194
2202, 982, 1093, 1164
2203, 982, 1183, 1093
2204, 1164, 1120, 982
2205, 1171, 1110, 983
2206, 1136, 1171, 983
2207, 1171, 1136, 984
2208, 985, 1092, 1178
2209, 1172, 985, 1178
2210, 1103, 1059, 986
2211, 1085, 1167, 986
2212, 1103, 986, 1167
2213, 988, 1168, 987
2214, 1198, 1057, 987
2215, 1168, 1198, 987
2216, 994, 988, 989
2217, 994, 1169, 988
2218, 988, 1169, 1168
2219, 995, 994, 989
2220, 989, 1192, 995
2221, 989, 1128, 1192
2222, 1170, 991, 990
2223, 1179, 1170, 990
2224, 993, 992, 991
2225, 1161, 993, 991
2226, 1170, 1161, 991
2227, 993, 1143, 992
2228, 1040, 1039, 992
2229, 992, 1143, 1040
2230, 993, 1071, 1143
2231, 993, 1213, 1071
2232, 1213, 993, 1161
2233, 994, 995, 1170
2234, 1169, 994, 1179
2235, 994, 1170, 1179
2236, 1161, 1170, 995
2237, 1189, 1161, 995
2238, 1192, 1189, 995
2239, 996, 1022, 1021
2240, 1022, 996, 1158
2241, 1135, 1158, 996
2242, 1121, 997, 1207
2243, 1001, 998, 999
2244, 998, 1001, 1196
2245, 1196, 1144, 998
2246, 1000, 1007, 999
2247, 1149, 1001, 999
2248, 1007, 1149, 999
2249, 1007, 1000, 1165
2250, 1114, 1051, 1000
2251, 1000, 1051, 1165
2252, 1180, 1114, 1000
2253, 1001, 1131, 1066
2254, 1001, 1066, 1196
2255, 1131, 1001, 1212
2256, 1001, 1149, 1212
2257, 1185, 1002, 1003
2258, 1004, 1182, 1003
2259, 1070, 1003, 1182
2260, 1004, 1041, 1118
2261, 1118, 1182, 1004
2262, 1107, 1005, 1164
2263, 1120, 1164, 1005
2264, 1037, 1006, 1175
2265, 1006, 1150, 1175
2266, 1007, 1165, 1111
2267, 1173, 1008, 1052
2268, 1009, 1127, 1129
2269, 1010, 1011, 1209
2270, 1197, 1206, 1010
2271, 1197, 1010, 1209
2272, 1155, 1011, 1053
2273, 1176, 1053, 1011
2274, 1121, 1013, 1106
2275, 1207, 1013, 1121
2276, 1117, 1014, 1048
2277, 1193, 1014, 1117
2278, 1014, 1193, 1141
2279, 1080, 1015, 1081
2280, 1015, 1080, 1138
2281, 1015, 1191, 1081
2282, 1191, 1015, 1141
2283, 1089, 1191, 1016
2284, 1089, 1016, 1199
2285, 1123, 1016, 1193
2286, 1199, 1016, 1123
2287, 1141, 1016, 1191
2288, 1016, 1141, 1193
2289, 1200, 1019, 1181
2290, 1038, 1160, 1020
2291, 1160, 1159, 1020
2292, 1022, 1187, 1021
2293, 1049, 1022, 1116
2294, 1187, 1022, 1049
2295, 1022, 1158, 1116
2296, 1126, 1023, 1091
2297, 1024, 1169, 1179
2298, 1028, 1201, 1027
2299, 1030, 1107, 1162
2300, 1211, 1030, 1162
2301, 1187, 1049, 1031
2302, 1032, 1210, 1033
2303, 1033, 1097, 1034
2304, 1033, 1098, 1097
2305, 1033, 1210, 1098
2306, 1036, 1035, 1034
2307, 1034, 1086, 1036
2308, 1086, 1034, 1097
2309, 1035, 1036, 1217
2310, 1036, 1086, 1087
2311, 1188, 1036, 1087
2312, 1036, 1188, 1217
2313, 1215, 1037, 1175
2314, 1208, 1037, 1215
2315, 1103, 1038, 1059
2316, 1160, 1038, 1104
2317, 1040, 1137, 1039
2318, 1143, 1096, 1040
2319, 1083, 1198, 1044
2320, 1168, 1044, 1198
2321, 1151, 1084, 1045
2322, 1125, 1151, 1045
2323, 1048, 1077, 1117
2324, 1077, 1048, 1128
2325, 1050, 1049, 1115
2326, 1115, 1049, 1116
2327, 1050, 1115, 1214
2328, 1210, 1050, 1214
2329, 1054, 1094, 1055
2330, 1073, 1056, 1218
2331, 1083, 1057, 1198
2332, 1058, 1072, 1105
2333, 1058, 1203, 1072
2334, 1060, 1188, 1061
2335, 1217, 1188, 1060
2336, 1095, 1062, 1061
2337, 1148, 1095, 1061
2338, 1188, 1148, 1061
2339, 1062, 1064, 1063
2340, 1064, 1062, 1065
2341, 1062, 1095, 1065
2342, 1064, 1067, 1063
2343, 1065, 1066, 1064
2344, 1131, 1064, 1066
2345, 1064, 1131, 1067
2346, 1066, 1065, 1124
2347, 1095, 1154, 1065
2348, 1131, 1212, 1067
2349, 1161, 1189, 1068
2350, 1068, 1213, 1161
2351, 1071, 1213, 1195
2352, 1084, 1151, 1076
2353, 1081, 1216, 1108
2354, 1216, 1081, 1191
2355, 1216, 1089, 1082
2356, 1082, 1108, 1216
2357, 1156, 1167, 1085
2358, 1202, 1087, 1086
2359, 1148, 1087, 1133
2360, 1188, 1087, 1148
2361, 1088, 1199, 1123
2362, 1199, 1088, 1147
2363, 1216, 1191, 1089
2364, 1142, 1091, 1113
2365, 1097, 1098, 1174
2366, 1214, 1099, 1098
2367, 1098, 1210, 1214
2368, 1099, 1214, 1115
2369, 1104, 1159, 1160
2370, 1109, 1157, 1112
2371, 1116, 1158, 1132
2372, 1193, 1117, 1123
*MATERIAL, NAME=CFRP
*ELASTIC, TYPE=ENGINEERING CONSTANTS
139067.000000, 7908.000000, 7908.000000, 0.257000, 0.257000, 0.300000, 3206.000000, 3206.000000, 2275.000000
*DENSITY
0.000000001580
** SOURCE_TET=6157
*ELSET, ELSET=ELEM_1
1
*ORIENTATION, NAME=ORI_1, SYSTEM=RECTANGULAR
98.08665971, 15.93711593, 102.30761103, 97.94872048, 16.61774559, 103.53956721
3, 0.
*SHELL SECTION, ELSET=ELEM_1, COMPOSITE, ORIENTATION=ORI_1
1.25893593, 3, CFRP, 0.
** SOURCE_TET=6527
*ELSET, ELSET=ELEM_2
2
*ORIENTATION, NAME=ORI_2, SYSTEM=RECTANGULAR
97.54573789, 15.93347354, 115.05105505, 97.38916824, 16.60200566, 116.28740077
3, 0.
*SHELL SECTION, ELSET=ELEM_2, COMPOSITE, ORIENTATION=ORI_2
1.25906384, 3, CFRP, 0.
** SOURCE_TET=5619
*ELSET, ELSET=ELEM_3
3
*ORIENTATION, NAME=ORI_3, SYSTEM=RECTANGULAR
98.16092308, -15.39888738, 102.31116265, 98.21164959, -14.70637513, 103.54317467
3, 0.
*SHELL SECTION, ELSET=ELEM_3, COMPOSITE, ORIENTATION=ORI_3
1.25893593, 3, CFRP, 0.
** SOURCE_TET=3682
*ELSET, ELSET=ELEM_4
4
*ORIENTATION, NAME=ORI_4, SYSTEM=RECTANGULAR
97.37570309, -15.48461659, 116.26212582, 97.37199303, -14.79888224, 117.49895832
3, 0.
*SHELL SECTION, ELSET=ELEM_4, COMPOSITE, ORIENTATION=ORI_4
1.25941515, 3, CFRP, 0.
** SOURCE_TET=5402
*ELSET, ELSET=ELEM_5
5
*ORIENTATION, NAME=ORI_5, SYSTEM=RECTANGULAR
99.29909543, 6.93269367, 93.13820604, 99.22839158, 7.63203006, 94.36536927
3, 0.
*SHELL SECTION, ELSET=ELEM_5, COMPOSITE, ORIENTATION=ORI_5
1.25880444, 3, CFRP, 0.
** SOURCE_TET=5371
*ELSET, ELSET=ELEM_6
6
*ORIENTATION, NAME=ORI_6, SYSTEM=RECTANGULAR
99.35253413, -6.40757233, 93.14173405, 99.42319994, -5.70823619, 94.36889961
3, 0.
*SHELL SECTION, ELSET=ELEM_6, COMPOSITE, ORIENTATION=ORI_6
1.25880456, 3, CFRP, 0.
** SOURCE_TET=5863
*ELSET, ELSET=ELEM_7
7
*ORIENTATION, NAME=ORI_7, SYSTEM=RECTANGULAR
97.71308919, 6.94965766, 123.79664822, 97.50616660, 7.61353961, 125.02808794
3, 0.
*SHELL SECTION, ELSET=ELEM_7, COMPOSITE, ORIENTATION=ORI_7
1.25950873, 3, CFRP, 0.
** SOURCE_TET=3538
*ELSET, ELSET=ELEM_8
8
*ORIENTATION, NAME=ORI_8, SYSTEM=RECTANGULAR
97.48252012, -6.48213220, 125.00644293, 97.37193981, -5.80189280, 126.24137060
3, 0.
*SHELL SECTION, ELSET=ELEM_8, COMPOSITE, ORIENTATION=ORI_8
1.26010871, 3, CFRP, 0.
** SOURCE_TET=5299
*ELSET, ELSET=ELEM_9
9
*ORIENTATION, NAME=ORI_9, SYSTEM=RECTANGULAR
99.20350801, -7.06275043, -94.48957529, 99.26719157, -6.49804785, -93.19456356
3, 0.
*SHELL SECTION, ELSET=ELEM_9, COMPOSITE, ORIENTATION=ORI_9
1.26333916, 3, CFRP, 0.
** SOURCE_TET=5723
*ELSET, ELSET=ELEM_10
10
*ORIENTATION, NAME=ORI_10, SYSTEM=RECTANGULAR
99.28867413, 7.03955552, -95.03456979, 99.23290363, 7.59148190, -93.73369819
3, 0.
*SHELL SECTION, ELSET=ELEM_10, COMPOSITE, ORIENTATION=ORI_10
1.26377487, 3, CFRP, 0.
** SOURCE_TET=5526
*ELSET, ELSET=ELEM_11
11
*ORIENTATION, NAME=ORI_11, SYSTEM=RECTANGULAR
98.00483668, 16.03987102, -104.19519459, 97.97817085, 16.57724392, -102.88732637
3, 0.
*SHELL SECTION, ELSET=ELEM_11, COMPOSITE, ORIENTATION=ORI_11
1.26433897, 3, CFRP, 0.
** SOURCE_TET=5988
*ELSET, ELSET=ELEM_12
12
*ORIENTATION, NAME=ORI_12, SYSTEM=RECTANGULAR
97.59044625, 15.21417716, -116.97408472, 97.57984966, 15.72881826, -115.65687850
3, 0.
*SHELL SECTION, ELSET=ELEM_12, COMPOSITE, ORIENTATION=ORI_12
1.26516581, 3, CFRP, 0.
** SOURCE_TET=5501
*ELSET, ELSET=ELEM_13
13
*ORIENTATION, NAME=ORI_13, SYSTEM=RECTANGULAR
97.95501391, -16.04136131, -103.65090739, 98.06215897, -15.50035883, -102.34866461
3, 0.
*SHELL SECTION, ELSET=ELEM_13, COMPOSITE, ORIENTATION=ORI_13
1.26389086, 3, CFRP, 0.
** SOURCE_TET=6425
*ELSET, ELSET=ELEM_14
14
*ORIENTATION, NAME=ORI_14, SYSTEM=RECTANGULAR
97.54200543, -15.24734798, -116.92497844, 97.67950616, -14.74783143, -115.60908453
3, 0.
*SHELL SECTION, ELSET=ELEM_14, COMPOSITE, ORIENTATION=ORI_14
1.26516175, 3, CFRP, 0.
** SOURCE_TET=5804
*ELSET, ELSET=ELEM_15
15
*ORIENTATION, NAME=ORI_15, SYSTEM=RECTANGULAR
97.51157256, -6.23883374, -125.64999627, 97.71779266, -5.75358916, -124.33774212
3, 0.
*SHELL SECTION, ELSET=ELEM_15, COMPOSITE, ORIENTATION=ORI_15
1.26609206, 3, CFRP, 0.
** SOURCE_TET=6202
*ELSET, ELSET=ELEM_16
16
*ORIENTATION, NAME=ORI_16, SYSTEM=RECTANGULAR
97.61793314, 6.23537367, -125.69883044, 97.76983180, 6.73824601, -124.38580104
3, 0.
*SHELL SECTION, ELSET=ELEM_16, COMPOSITE, ORIENTATION=ORI_16
1.26609659, 3, CFRP, 0.
** SOURCE_TET=4559
*ELSET, ELSET=ELEM_17
17
*ORIENTATION, NAME=ORI_17, SYSTEM=RECTANGULAR
12.74579055, 1.45592495, 209.16201160, 11.35119532, 1.62192705, 209.32798583
3, 0.
*SHELL SECTION, ELSET=ELEM_17, COMPOSITE, ORIENTATION=ORI_17
1.59446836, 3, CFRP, 0.
** SOURCE_TET=4552
*ELSET, ELSET=ELEM_18
18
*ORIENTATION, NAME=ORI_18, SYSTEM=RECTANGULAR
12.80919728, -0.30729849, 209.16082496, 11.44099032, 0.00989615, 209.32634618
3, 0.
*SHELL SECTION, ELSET=ELEM_18, COMPOSITE, ORIENTATION=ORI_18
1.59446800, 3, CFRP, 0.
** SOURCE_TET=3148
*ELSET, ELSET=ELEM_19
19
*ORIENTATION, NAME=ORI_19, SYSTEM=RECTANGULAR
11.65444338, -0.58715704, -209.29020040, 13.05213265, -0.72012534, -209.12054150
3, 0.
*SHELL SECTION, ELSET=ELEM_19, COMPOSITE, ORIENTATION=ORI_19
1.69051349, 3, CFRP, 0.
** SOURCE_TET=5841
*ELSET, ELSET=ELEM_20
20
*ORIENTATION, NAME=ORI_20, SYSTEM=RECTANGULAR
11.20028034, 1.47317249, -209.34687697, 12.59798754, 1.60801314, -209.17885145
3, 0.
*SHELL SECTION, ELSET=ELEM_20, COMPOSITE, ORIENTATION=ORI_20
1.69086099, 3, CFRP, 0.
** SOURCE_TET=7359
*ELSET, ELSET=ELEM_21
21
*ORIENTATION, NAME=ORI_21, SYSTEM=RECTANGULAR
89.93850409, 42.19453576, 101.30280525, 89.62849763, 42.82523310, 102.53004477
3, 0.
*SHELL SECTION, ELSET=ELEM_21, COMPOSITE, ORIENTATION=ORI_21
1.25881171, 3, CFRP, 0.
** SOURCE_TET=5407
*ELSET, ELSET=ELEM_22
22
*ORIENTATION, NAME=ORI_22, SYSTEM=RECTANGULAR
89.96426986, 40.30501446, 116.59115223, 89.60724057, 40.89426761, 117.82618697
3, 0.
*SHELL SECTION, ELSET=ELEM_22, COMPOSITE, ORIENTATION=ORI_22
1.25911951, 3, CFRP, 0.
** SOURCE_TET=5608
*ELSET, ELSET=ELEM_23
23
*ORIENTATION, NAME=ORI_23, SYSTEM=RECTANGULAR
94.07804328, 31.52636700, 94.57157207, 93.88335000, 32.20934072, 95.79453627
3, 0.
*SHELL SECTION, ELSET=ELEM_23, COMPOSITE, ORIENTATION=ORI_23
1.25871444, 3, CFRP, 0.
** SOURCE_TET=6630
*ELSET, ELSET=ELEM_24
24
*ORIENTATION, NAME=ORI_24, SYSTEM=RECTANGULAR
93.65388550, 29.66529118, 122.60736094, 93.28179142, 30.25536620, 123.83754688
3, 0.
*SHELL SECTION, ELSET=ELEM_24, COMPOSITE, ORIENTATION=ORI_24
1.25942922, 3, CFRP, 0.
** SOURCE_TET=4577
*ELSET, ELSET=ELEM_25
25
*ORIENTATION, NAME=ORI_25, SYSTEM=RECTANGULAR
76.21312099, 63.81980712, 101.19494773, 75.73962270, 64.32942400, 102.42624380
3, 0.
*SHELL SECTION, ELSET=ELEM_25, COMPOSITE, ORIENTATION=ORI_25
1.25892103, 3, CFRP, 0.
** SOURCE_TET=4831
*ELSET, ELSET=ELEM_26
26
*ORIENTATION, NAME=ORI_26, SYSTEM=RECTANGULAR
75.24742515, 63.97237023, 115.54241619, 74.76020462, 64.45596180, 116.77884465
3, 0.
*SHELL SECTION, ELSET=ELEM_26, COMPOSITE, ORIENTATION=ORI_26
1.25908017, 3, CFRP, 0.
** SOURCE_TET=6817
*ELSET, ELSET=ELEM_27
27
*ORIENTATION, NAME=ORI_27, SYSTEM=RECTANGULAR
82.87908148, 55.06264052, 93.46006973, 82.50289913, 55.65607004, 94.68739538
3, 0.
*SHELL SECTION, ELSET=ELEM_27, COMPOSITE, ORIENTATION=ORI_27
1.25880921, 3, CFRP, 0.
** SOURCE_TET=3052
*ELSET, ELSET=ELEM_28
28
*ORIENTATION, NAME=ORI_28, SYSTEM=RECTANGULAR
82.02279004, 53.39405442, 123.10548785, 81.49470077, 53.84288105, 124.33823940
3, 0.
*SHELL SECTION, ELSET=ELEM_28, COMPOSITE, ORIENTATION=ORI_28
1.25996339, 3, CFRP, 0.
** SOURCE_TET=3050
*ELSET, ELSET=ELEM_29
29
*ORIENTATION, NAME=ORI_29, SYSTEM=RECTANGULAR
57.11211995, 81.37590392, 101.18215889, 56.51696732, 81.73644760, 102.41333784
3, 0.
*SHELL SECTION, ELSET=ELEM_29, COMPOSITE, ORIENTATION=ORI_29
1.25892079, 3, CFRP, 0.
** SOURCE_TET=2810
*ELSET, ELSET=ELEM_30
30
*ORIENTATION, NAME=ORI_30, SYSTEM=RECTANGULAR
56.68364843, 80.72332213, 116.33418155, 56.07748496, 81.04810271, 117.56993372
3, 0.
*SHELL SECTION, ELSET=ELEM_30, COMPOSITE, ORIENTATION=ORI_30
1.25910914, 3, CFRP, 0.
** SOURCE_TET=6781
*ELSET, ELSET=ELEM_31
31
*ORIENTATION, NAME=ORI_31, SYSTEM=RECTANGULAR
66.88775272, 73.65189785, 93.33579651, 66.38473618, 74.15472480, 94.55814647
3, 0.
*SHELL SECTION, ELSET=ELEM_31, COMPOSITE, ORIENTATION=ORI_31
1.25869346, 3, CFRP, 0.
** SOURCE_TET=7413
*ELSET, ELSET=ELEM_32
32
*ORIENTATION, NAME=ORI_32, SYSTEM=RECTANGULAR
65.55063405, 73.23238922, 122.84277607, 64.93588752, 73.55461674, 124.07495144
3, 0.
*SHELL SECTION, ELSET=ELEM_32, COMPOSITE, ORIENTATION=ORI_32
1.25944388, 3, CFRP, 0.
** SOURCE_TET=3187
*ELSET, ELSET=ELEM_33
33
*ORIENTATION, NAME=ORI_33, SYSTEM=RECTANGULAR
33.03925996, 93.76694103, 101.18216819, 32.36894354, 93.95352934, 102.41337114
3, 0.
*SHELL SECTION, ELSET=ELEM_33, COMPOSITE, ORIENTATION=ORI_33
1.25892079, 3, CFRP, 0.
** SOURCE_TET=2647
*ELSET, ELSET=ELEM_34
34
*ORIENTATION, NAME=ORI_34, SYSTEM=RECTANGULAR
34.35491217, 92.41559684, 116.40178177, 33.68011128, 92.55629402, 117.63662916
3, 0.
*SHELL SECTION, ELSET=ELEM_34, COMPOSITE, ORIENTATION=ORI_34
1.25911164, 3, CFRP, 0.
** SOURCE_TET=4071
*ELSET, ELSET=ELEM_35
35
*ORIENTATION, NAME=ORI_35, SYSTEM=RECTANGULAR
45.47566538, 88.32124413, 93.32326425, 44.86727315, 88.69088174, 94.54524090
3, 0.
*SHELL SECTION, ELSET=ELEM_35, COMPOSITE, ORIENTATION=ORI_35
1.25869226, 3, CFRP, 0.
** SOURCE_TET=5353
*ELSET, ELSET=ELEM_36
36
*ORIENTATION, NAME=ORI_36, SYSTEM=RECTANGULAR
46.40429619, 86.42465203, 123.70434493, 45.73945657, 86.59786053, 124.94046268
3, 0.
*SHELL SECTION, ELSET=ELEM_36, COMPOSITE, ORIENTATION=ORI_36
1.26006079, 3, CFRP, 0.
** SOURCE_TET=2515
*ELSET, ELSET=ELEM_37
37
*ORIENTATION, NAME=ORI_37, SYSTEM=RECTANGULAR
5.75132579, 99.24142558, 100.04629739, 5.05486026, 99.24767319, 101.27710880
3, 0.
*SHELL SECTION, ELSET=ELEM_37, COMPOSITE, ORIENTATION=ORI_37
1.25890493, 3, CFRP, 0.
** SOURCE_TET=2629
*ELSET, ELSET=ELEM_38
38
*ORIENTATION, NAME=ORI_38, SYSTEM=RECTANGULAR
5.34157111, 98.41307226, 116.67945814, 4.65600249, 98.36344470, 117.91539210
3, 0.
*SHELL SECTION, ELSET=ELEM_38, COMPOSITE, ORIENTATION=ORI_38
1.25912261, 3, CFRP, 0.
** SOURCE_TET=2220
*ELSET, ELSET=ELEM_39
39
*ORIENTATION, NAME=ORI_39, SYSTEM=RECTANGULAR
19.19527045, 97.35334671, 92.18778915, 18.50835051, 97.54534566, 93.40896784
3, 0.
*SHELL SECTION, ELSET=ELEM_39, COMPOSITE, ORIENTATION=ORI_39
1.25867712, 3, CFRP, 0.
** SOURCE_TET=5509
*ELSET, ELSET=ELEM_40
40
*ORIENTATION, NAME=ORI_40, SYSTEM=RECTANGULAR
14.56642714, 96.64572385, 125.41822658, 13.87505874, 96.57890755, 126.65011348
3, 0.
*SHELL SECTION, ELSET=ELEM_40, COMPOSITE, ORIENTATION=ORI_40
1.26011944, 3, CFRP, 0.
** SOURCE_TET=2752
*ELSET, ELSET=ELEM_41
41
*ORIENTATION, NAME=ORI_41, SYSTEM=RECTANGULAR
25.94969076, 94.26848101, 125.14234421, 25.26515787, 94.29618541, 126.37953749
3, 0.
*SHELL SECTION, ELSET=ELEM_41, COMPOSITE, ORIENTATION=ORI_41
1.26008964, 3, CFRP, 0.
** SOURCE_TET=3569
*ELSET, ELSET=ELEM_42
42
*ORIENTATION, NAME=ORI_42, SYSTEM=RECTANGULAR
-20.49591118, 97.29902008, 103.60216200, -21.15852762, 97.08949002, 104.83384240
3, 0.
*SHELL SECTION, ELSET=ELEM_42, COMPOSITE, ORIENTATION=ORI_42
1.25895166, 3, CFRP, 0.
** SOURCE_TET=2303
*ELSET, ELSET=ELEM_43
43
*ORIENTATION, NAME=ORI_43, SYSTEM=RECTANGULAR
-20.31840020, 96.40339366, 116.87969619, -20.96470308, 96.16861269, 118.11548358
3, 0.
*SHELL SECTION, ELSET=ELEM_43, COMPOSITE, ORIENTATION=ORI_43
1.25913084, 3, CFRP, 0.
** SOURCE_TET=3543
*ELSET, ELSET=ELEM_44
44
*ORIENTATION, NAME=ORI_44, SYSTEM=RECTANGULAR
-7.80041434, 99.13287535, 94.60662774, -8.50987787, 99.10845794, 95.82976522
3, 0.
*SHELL SECTION, ELSET=ELEM_44, COMPOSITE, ORIENTATION=ORI_44
1.25871646, 3, CFRP, 0.
** SOURCE_TET=3232
*ELSET, ELSET=ELEM_45
45
*ORIENTATION, NAME=ORI_45, SYSTEM=RECTANGULAR
-8.05980294, 97.51779127, 124.52674659, -8.70777002, 97.27897639, 125.76088844
3, 0.
*SHELL SECTION, ELSET=ELEM_45, COMPOSITE, ORIENTATION=ORI_45
1.26010847, 3, CFRP, 0.
** SOURCE_TET=3075
*ELSET, ELSET=ELEM_46
46
*ORIENTATION, NAME=ORI_46, SYSTEM=RECTANGULAR
-45.97724053, 88.14717925, 101.18218037, -46.57108244, 87.78466891, 102.41341472
3, 0.
*SHELL SECTION, ELSET=ELEM_46, COMPOSITE, ORIENTATION=ORI_46
1.25892079, 3, CFRP, 0.
** SOURCE_TET=3172
*ELSET, ELSET=ELEM_47
47
*ORIENTATION, NAME=ORI_47, SYSTEM=RECTANGULAR
-48.47366855, 86.20180397, 114.46103661, -49.04949247, 85.83150246, 115.69849514
3, 0.
*SHELL SECTION, ELSET=ELEM_47, COMPOSITE, ORIENTATION=ORI_47
1.25904512, 3, CFRP, 0.
** SOURCE_TET=4168
*ELSET, ELSET=ELEM_48
48
*ORIENTATION, NAME=ORI_48, SYSTEM=RECTANGULAR
-33.51030164, 93.51475443, 95.74278163, -34.19805665, 93.34030653, 96.96612172
3, 0.
*SHELL SECTION, ELSET=ELEM_48, COMPOSITE, ORIENTATION=ORI_48
1.25873470, 3, CFRP, 0.
** SOURCE_TET=1642
*ELSET, ELSET=ELEM_49
49
*ORIENTATION, NAME=ORI_49, SYSTEM=RECTANGULAR
-31.68984863, 92.19215201, 126.04100414, -32.25327612, 91.78767091, 127.27345881
3, 0.
*SHELL SECTION, ELSET=ELEM_49, COMPOSITE, ORIENTATION=ORI_49
1.26020825, 3, CFRP, 0.
** SOURCE_TET=3256
*ELSET, ELSET=ELEM_50
50
*ORIENTATION, NAME=ORI_50, SYSTEM=RECTANGULAR
-42.90726468, 88.06427216, 123.62041438, -43.44967001, 87.64586577, 124.85764215
3, 0.
*SHELL SECTION, ELSET=ELEM_50, COMPOSITE, ORIENTATION=ORI_50
1.25997567, 3, CFRP, 0.
** SOURCE_TET=4102
*ELSET, ELSET=ELEM_51
51
*ORIENTATION, NAME=ORI_51, SYSTEM=RECTANGULAR
-68.11564814, 72.42302774, 102.08393264, -68.58465277, 71.90979988, 103.31544870
3, 0.
*SHELL SECTION, ELSET=ELEM_51, COMPOSITE, ORIENTATION=ORI_51
1.25893295, 3, CFRP, 0.
** SOURCE_TET=4101
*ELSET, ELSET=ELEM_52
52
*ORIENTATION, NAME=ORI_52, SYSTEM=RECTANGULAR
-68.60544892, 71.16461756, 115.12873742, -69.06506681, 70.65871146, 116.36680463
3, 0.
*SHELL SECTION, ELSET=ELEM_52, COMPOSITE, ORIENTATION=ORI_52
1.25906587, 3, CFRP, 0.
** SOURCE_TET=4534
*ELSET, ELSET=ELEM_53
53
*ORIENTATION, NAME=ORI_53, SYSTEM=RECTANGULAR
-57.55293043, 80.95283860, 94.22492430, -58.16045419, 80.58311551, 95.44730711
3, 0.
*SHELL SECTION, ELSET=ELEM_53, COMPOSITE, ORIENTATION=ORI_53
1.25870609, 3, CFRP, 0.
** SOURCE_TET=6706
*ELSET, ELSET=ELEM_54
54
*ORIENTATION, NAME=ORI_54, SYSTEM=RECTANGULAR
-60.61577558, 77.83018876, 120.55443434, -61.05491551, 77.30023238, 121.78987044
3, 0.
*SHELL SECTION, ELSET=ELEM_54, COMPOSITE, ORIENTATION=ORI_54
1.25975072, 3, CFRP, 0.
** SOURCE_TET=3788
*ELSET, ELSET=ELEM_55
55
*ORIENTATION, NAME=ORI_55, SYSTEM=RECTANGULAR
-85.08369696, 51.42563949, 101.18217539, -85.40274474, 50.80733367, 102.41339691
3, 0.
*SHELL SECTION, ELSET=ELEM_55, COMPOSITE, ORIENTATION=ORI_55
1.25892079, 3, CFRP, 0.
** SOURCE_TET=4769
*ELSET, ELSET=ELEM_56
56
*ORIENTATION, NAME=ORI_56, SYSTEM=RECTANGULAR
-84.66833160, 50.83656342, 115.71158497, -84.96409002, 50.21987694, 116.94941562
3, 0.
*SHELL SECTION, ELSET=ELEM_56, COMPOSITE, ORIENTATION=ORI_56
1.25908601, 3, CFRP, 0.
** SOURCE_TET=4578
*ELSET, ELSET=ELEM_57
57
*ORIENTATION, NAME=ORI_57, SYSTEM=RECTANGULAR
-77.27845120, 62.43962349, 94.22457800, -77.76752771, 61.92158318, 95.44623196
3, 0.
*SHELL SECTION, ELSET=ELEM_57, COMPOSITE, ORIENTATION=ORI_57
1.25868940, 3, CFRP, 0.
** SOURCE_TET=6347
*ELSET, ELSET=ELEM_58
58
*ORIENTATION, NAME=ORI_58, SYSTEM=RECTANGULAR
-77.47145654, 60.67133521, 121.80881554, -77.74990044, 60.04012291, 123.04333570
3, 0.
*SHELL SECTION, ELSET=ELEM_58, COMPOSITE, ORIENTATION=ORI_58
1.25994062, 3, CFRP, 0.
** SOURCE_TET=5086
*ELSET, ELSET=ELEM_59
59
*ORIENTATION, NAME=ORI_59, SYSTEM=RECTANGULAR
-94.98063064, 29.08257012, 102.61065890, -95.13142650, 28.39875190, 103.83933837
3, 0.
*SHELL SECTION, ELSET=ELEM_59, COMPOSITE, ORIENTATION=ORI_59
1.25885296, 3, CFRP, 0.
** SOURCE_TET=5818
*ELSET, ELSET=ELEM_60
60
*ORIENTATION, NAME=ORI_60, SYSTEM=RECTANGULAR
-95.20007889, 26.25641846, 115.72934193, -95.31809790, 25.58300699, 116.96731952
3, 0.
*SHELL SECTION, ELSET=ELEM_60, COMPOSITE, ORIENTATION=ORI_60
1.25908673, 3, CFRP, 0.
** SOURCE_TET=6576
*ELSET, ELSET=ELEM_61
61
*ORIENTATION, NAME=ORI_61, SYSTEM=RECTANGULAR
-90.43428555, 41.86414691, 94.75452663, -90.75718214, 41.24170245, 95.98265556
3, 0.
*SHELL SECTION, ELSET=ELEM_61, COMPOSITE, ORIENTATION=ORI_61
1.25882804, 3, CFRP, 0.
** SOURCE_TET=5597
*ELSET, ELSET=ELEM_62
62
*ORIENTATION, NAME=ORI_62, SYSTEM=RECTANGULAR
-90.33609575, 38.49893266, 122.40889369, -90.43791004, 37.80643022, 123.63774446
3, 0.
*SHELL SECTION, ELSET=ELEM_62, COMPOSITE, ORIENTATION=ORI_62
1.25941718, 3, CFRP, 0.
** SOURCE_TET=4379
*ELSET, ELSET=ELEM_63
63
*ORIENTATION, NAME=ORI_63, SYSTEM=RECTANGULAR
-99.36779600, -2.06935172, 102.29088849, -99.31998845, -2.76246344, 103.52268011
3, 0.
*SHELL SECTION, ELSET=ELEM_63, COMPOSITE, ORIENTATION=ORI_63
1.25893569, 3, CFRP, 0.
** SOURCE_TET=3828
*ELSET, ELSET=ELEM_64
64
*ORIENTATION, NAME=ORI_64, SYSTEM=RECTANGULAR
-98.48711167, -1.15026757, 116.98436319, -98.38437527, -1.83341919, 118.21836039
3, 0.
*SHELL SECTION, ELSET=ELEM_64, COMPOSITE, ORIENTATION=ORI_64
1.25913596, 3, CFRP, 0.
** SOURCE_TET=7361
*ELSET, ELSET=ELEM_65
65
*ORIENTATION, NAME=ORI_65, SYSTEM=RECTANGULAR
-99.23370210, 7.70968009, 92.54636829, -99.27666603, 7.00749560, 93.77318981
3, 0.
*SHELL SECTION, ELSET=ELEM_65, COMPOSITE, ORIENTATION=ORI_65
1.25879586, 3, CFRP, 0.
** SOURCE_TET=3743
*ELSET, ELSET=ELEM_66
66
*ORIENTATION, NAME=ORI_66, SYSTEM=RECTANGULAR
-97.29684237, 21.03417913, 92.86648265, -97.46429090, 20.34505414, 94.09002985
3, 0.
*SHELL SECTION, ELSET=ELEM_66, COMPOSITE, ORIENTATION=ORI_66
1.25871170, 3, CFRP, 0.
** SOURCE_TET=7420
*ELSET, ELSET=ELEM_67
67
*ORIENTATION, NAME=ORI_67, SYSTEM=RECTANGULAR
-97.04388943, 12.09514735, 123.68245626, -96.92576849, 11.40071598, 124.90875659
3, 0.
*SHELL SECTION, ELSET=ELEM_67, COMPOSITE, ORIENTATION=ORI_67
1.25950181, 3, CFRP, 0.
** SOURCE_TET=4617
*ELSET, ELSET=ELEM_68
68
*ORIENTATION, NAME=ORI_68, SYSTEM=RECTANGULAR
-95.65936335, -27.07631657, 101.18068618, -95.42354155, -27.73818458, 102.40800798
3, 0.
*SHELL SECTION, ELSET=ELEM_68, COMPOSITE, ORIENTATION=ORI_68
1.25882411, 3, CFRP, 0.
** SOURCE_TET=4353
*ELSET, ELSET=ELEM_69
69
*ORIENTATION, NAME=ORI_69, SYSTEM=RECTANGULAR
-94.79074270, -27.38541998, 116.18062755, -94.52849440, -28.02174224, 117.41607071
3, 0.
*SHELL SECTION, ELSET=ELEM_69, COMPOSITE, ORIENTATION=ORI_69
1.25910354, 3, CFRP, 0.
** SOURCE_TET=6044
*ELSET, ELSET=ELEM_70
70
*ORIENTATION, NAME=ORI_70, SYSTEM=RECTANGULAR
-98.33881285, -15.58247644, 94.43184567, -98.25795810, -16.28656998, 95.65565725
3, 0.
*SHELL SECTION, ELSET=ELEM_70, COMPOSITE, ORIENTATION=ORI_70
1.25872648, 3, CFRP, 0.
** SOURCE_TET=4589
*ELSET, ELSET=ELEM_71
71
*ORIENTATION, NAME=ORI_71, SYSTEM=RECTANGULAR
-96.69236719, -14.99748566, 124.13342013, -96.40708175, -15.63541477, 125.36291541
3, 0.
*SHELL SECTION, ELSET=ELEM_71, COMPOSITE, ORIENTATION=ORI_71
1.25953186, 3, CFRP, 0.
** SOURCE_TET=5960
*ELSET, ELSET=ELEM_72
72
*ORIENTATION, NAME=ORI_72, SYSTEM=RECTANGULAR
-84.81671608, -51.89523257, 103.50441880, -84.39827946, -52.45035597, 104.73598236
3, 0.
*SHELL SECTION, ELSET=ELEM_72, COMPOSITE, ORIENTATION=ORI_72
1.25895047, 3, CFRP, 0.
** SOURCE_TET=3840
*ELSET, ELSET=ELEM_73
73
*ORIENTATION, NAME=ORI_73, SYSTEM=RECTANGULAR
-84.33000827, -51.11881044, 116.43565868, -83.90034686, -51.65734617, 117.67071752
3, 0.
*SHELL SECTION, ELSET=ELEM_73, COMPOSITE, ORIENTATION=ORI_73
1.25911319, 3, CFRP, 0.
** SOURCE_TET=5442
*ELSET, ELSET=ELEM_74
74
*ORIENTATION, NAME=ORI_74, SYSTEM=RECTANGULAR
-91.00557586, -39.80890733, 95.64469398, -90.76696150, -40.47937356, 96.86679799
3, 0.
*SHELL SECTION, ELSET=ELEM_74, COMPOSITE, ORIENTATION=ORI_74
1.25870299, 3, CFRP, 0.
** SOURCE_TET=5287
*ELSET, ELSET=ELEM_75
75
*ORIENTATION, NAME=ORI_75, SYSTEM=RECTANGULAR
-89.77764866, -39.40947448, 123.58487137, -89.34521196, -39.95392175, 124.81636464
3, 0.
*SHELL SECTION, ELSET=ELEM_75, COMPOSITE, ORIENTATION=ORI_75
1.26010060, 3, CFRP, 0.
** SOURCE_TET=3487
*ELSET, ELSET=ELEM_76
76
*ORIENTATION, NAME=ORI_76, SYSTEM=RECTANGULAR
-67.66087361, -72.84118477, 101.18215327, -67.12033984, -73.27942828, 102.41331771
3, 0.
*SHELL SECTION, ELSET=ELEM_76, COMPOSITE, ORIENTATION=ORI_76
1.25892079, 3, CFRP, 0.
** SOURCE_TET=3083
*ELSET, ELSET=ELEM_77
77
*ORIENTATION, NAME=ORI_77, SYSTEM=RECTANGULAR
-68.09518862, -71.26635592, 116.56524903, -67.53079938, -71.66327547, 117.79972044
3, 0.
*SHELL SECTION, ELSET=ELEM_77, COMPOSITE, ORIENTATION=ORI_77
1.25911820, 3, CFRP, 0.
** SOURCE_TET=2521
*ELSET, ELSET=ELEM_78
78
*ORIENTATION, NAME=ORI_78, SYSTEM=RECTANGULAR
-76.89307601, -62.89231421, 95.64535217, -76.49832478, -63.48071913, 96.86926031
3, 0.
*SHELL SECTION, ELSET=ELEM_78, COMPOSITE, ORIENTATION=ORI_78
1.25874758, 3, CFRP, 0.
** SOURCE_TET=5419
*ELSET, ELSET=ELEM_79
79
*ORIENTATION, NAME=ORI_79, SYSTEM=RECTANGULAR
-76.94075091, -60.63459722, 123.97017479, -76.39368274, -61.05377785, 125.20508533
3, 0.
*SHELL SECTION, ELSET=ELEM_79, COMPOSITE, ORIENTATION=ORI_79
1.26016915, 3, CFRP, 0.
** SOURCE_TET=3117
*ELSET, ELSET=ELEM_80
80
*ORIENTATION, NAME=ORI_80, SYSTEM=RECTANGULAR
-45.49947451, -88.39473838, 101.18216387, -44.86079115, -88.67087305, 102.41335565
3, 0.
*SHELL SECTION, ELSET=ELEM_80, COMPOSITE, ORIENTATION=ORI_80
1.25892079, 3, CFRP, 0.
** SOURCE_TET=2573
*ELSET, ELSET=ELEM_81
81
*ORIENTATION, NAME=ORI_81, SYSTEM=RECTANGULAR
-44.08756227, -88.12278952, 116.77958736, -43.43728907, -88.34838819, 118.01500228
3, 0.
*SHELL SECTION, ELSET=ELEM_81, COMPOSITE, ORIENTATION=ORI_81
1.25912678, 3, CFRP, 0.
** SOURCE_TET=3773
*ELSET, ELSET=ELEM_82
82
*ORIENTATION, NAME=ORI_82, SYSTEM=RECTANGULAR
-57.07846735, -81.30637741, 93.32327834, -56.52612984, -81.75537744, 94.54529399
3, 0.
*SHELL SECTION, ELSET=ELEM_82, COMPOSITE, ORIENTATION=ORI_82
1.25869322, 3, CFRP, 0.
** SOURCE_TET=3574
*ELSET, ELSET=ELEM_83
83
*ORIENTATION, NAME=ORI_83, SYSTEM=RECTANGULAR
-60.90914631, -76.37355217, 125.59350696, -60.28565267, -76.65732211, 126.83073382
3, 0.
*SHELL SECTION, ELSET=ELEM_83, COMPOSITE, ORIENTATION=ORI_83
1.26023412, 3, CFRP, 0.
** SOURCE_TET=5236
*ELSET, ELSET=ELEM_84
84
*ORIENTATION, NAME=ORI_84, SYSTEM=RECTANGULAR
-51.62942000, -82.88504990, 125.80605984, -50.97053581, -83.09513628, 127.03964620
3, 0.
*SHELL SECTION, ELSET=ELEM_84, COMPOSITE, ORIENTATION=ORI_84
1.26025784, 3, CFRP, 0.
** SOURCE_TET=2819
*ELSET, ELSET=ELEM_85
85
*ORIENTATION, NAME=ORI_85, SYSTEM=RECTANGULAR
-19.82905426, -97.42234762, 101.61927024, -19.13947792, -97.51305744, 102.85063379
3, 0.
*SHELL SECTION, ELSET=ELEM_85, COMPOSITE, ORIENTATION=ORI_85
1.25892675, 3, CFRP, 0.
** SOURCE_TET=2147
*ELSET, ELSET=ELEM_86
86
*ORIENTATION, NAME=ORI_86, SYSTEM=RECTANGULAR
-20.19490175, -96.52334219, 116.43835060, -19.50944052, -96.57651030, 117.67419689
3, 0.
*SHELL SECTION, ELSET=ELEM_86, COMPOSITE, ORIENTATION=ORI_86
1.25911307, 3, CFRP, 0.
** SOURCE_TET=2584
*ELSET, ELSET=ELEM_87
87
*ORIENTATION, NAME=ORI_87, SYSTEM=RECTANGULAR
-32.88893153, -93.71584807, 93.76060065, -32.23721274, -93.99874871, 94.98339656
3, 0.
*SHELL SECTION, ELSET=ELEM_87, COMPOSITE, ORIENTATION=ORI_87
1.25871432, 3, CFRP, 0.
** SOURCE_TET=6072
*ELSET, ELSET=ELEM_88
88
*ORIENTATION, NAME=ORI_88, SYSTEM=RECTANGULAR
-31.86368843, -92.65289137, 124.18588435, -31.17664325, -92.70571465, 125.42086557
3, 0.
*SHELL SECTION, ELSET=ELEM_88, COMPOSITE, ORIENTATION=ORI_88
1.26021791, 3, CFRP, 0.
** SOURCE_TET=2791
*ELSET, ELSET=ELEM_89
89
*ORIENTATION, NAME=ORI_89, SYSTEM=RECTANGULAR
7.05779985, -99.16790502, 101.43598430, 7.74653492, -99.07038785, 102.66729840
3, 0.
*SHELL SECTION, ELSET=ELEM_89, COMPOSITE, ORIENTATION=ORI_89
1.25892437, 3, CFRP, 0.
** SOURCE_TET=2372
*ELSET, ELSET=ELEM_90
90
*ORIENTATION, NAME=ORI_90, SYSTEM=RECTANGULAR
5.90068559, -98.44160154, 116.36204710, 6.57502765, -98.30712013, 117.59783734
3, 0.
*SHELL SECTION, ELSET=ELEM_90, COMPOSITE, ORIENTATION=ORI_90
1.25911009, 3, CFRP, 0.
** SOURCE_TET=4479
*ELSET, ELSET=ELEM_91
91
*ORIENTATION, NAME=ORI_91, SYSTEM=RECTANGULAR
-6.38367493, -99.15328081, 94.01405242, -5.67908205, -99.24972979, 95.23644616
3, 0.
*SHELL SECTION, ELSET=ELEM_91, COMPOSITE, ORIENTATION=ORI_91
1.25870311, 3, CFRP, 0.
** SOURCE_TET=2841
*ELSET, ELSET=ELEM_92
92
*ORIENTATION, NAME=ORI_92, SYSTEM=RECTANGULAR
-7.90261546, -97.65626247, 123.76980131, -7.22368842, -97.53887138, 125.00482252
3, 0.
*SHELL SECTION, ELSET=ELEM_92, COMPOSITE, ORIENTATION=ORI_92
1.26003969, 3, CFRP, 0.
** SOURCE_TET=3173
*ELSET, ELSET=ELEM_93
93
*ORIENTATION, NAME=ORI_93, SYSTEM=RECTANGULAR
33.54629870, -93.58673892, 101.18217998, 34.18397305, -93.30846593, 102.41341334
3, 0.
*SHELL SECTION, ELSET=ELEM_93, COMPOSITE, ORIENTATION=ORI_93
1.25892079, 3, CFRP, 0.
** SOURCE_TET=2699
*ELSET, ELSET=ELEM_94
94
*ORIENTATION, NAME=ORI_94, SYSTEM=RECTANGULAR
35.52238349, -91.98713777, 116.28198887, 36.13008317, -91.66736022, 117.51829119
3, 0.
*SHELL SECTION, ELSET=ELEM_94, COMPOSITE, ORIENTATION=ORI_94
1.25910711, 3, CFRP, 0.
** SOURCE_TET=3471
*ELSET, ELSET=ELEM_95
95
*ORIENTATION, NAME=ORI_95, SYSTEM=RECTANGULAR
20.46729942, -97.21025048, 93.57704882, 21.17246273, -97.11457222, 94.79917417
3, 0.
*SHELL SECTION, ELSET=ELEM_95, COMPOSITE, ORIENTATION=ORI_95
1.25869703, 3, CFRP, 0.
** SOURCE_TET=3884
*ELSET, ELSET=ELEM_96
96
*ORIENTATION, NAME=ORI_96, SYSTEM=RECTANGULAR
15.51403696, -96.54449273, 125.11866109, 16.14520848, -96.27134563, 126.35438484
3, 0.
*SHELL SECTION, ELSET=ELEM_96, COMPOSITE, ORIENTATION=ORI_96
1.26017773, 3, CFRP, 0.
** SOURCE_TET=4305
*ELSET, ELSET=ELEM_97
97
*ORIENTATION, NAME=ORI_97, SYSTEM=RECTANGULAR
27.52641626, -93.76663064, 125.03680880, 28.11574789, -93.42598305, 126.27642465
3, 0.
*SHELL SECTION, ELSET=ELEM_97, COMPOSITE, ORIENTATION=ORI_97
1.26024175, 3, CFRP, 0.
** SOURCE_TET=3191
*ELSET, ELSET=ELEM_98
98
*ORIENTATION, NAME=ORI_98, SYSTEM=RECTANGULAR
57.55331441, -81.06409907, 101.11819989, 58.09254770, -80.62438521, 102.34941035
3, 0.
*SHELL SECTION, ELSET=ELEM_98, COMPOSITE, ORIENTATION=ORI_98
1.25891995, 3, CFRP, 0.
** SOURCE_TET=2906
*ELSET, ELSET=ELEM_99
99
*ORIENTATION, NAME=ORI_99, SYSTEM=RECTANGULAR
58.26198573, -79.61219567, 116.19162776, 58.76804411, -79.14999696, 117.42867153
3, 0.
*SHELL SECTION, ELSET=ELEM_99, COMPOSITE, ORIENTATION=ORI_99
1.25910354, 3, CFRP, 0.
** SOURCE_TET=3447
*ELSET, ELSET=ELEM_100
100
*ORIENTATION, NAME=ORI_100, SYSTEM=RECTANGULAR
45.93275113, -88.08428181, 93.25929153, 46.58563147, -87.80038038, 94.48123557
3, 0.
*SHELL SECTION, ELSET=ELEM_100, COMPOSITE, ORIENTATION=ORI_100
1.25869226, 3, CFRP, 0.
** SOURCE_TET=2738
*ELSET, ELSET=ELEM_101
101
*ORIENTATION, NAME=ORI_101, SYSTEM=RECTANGULAR
48.67094392, -85.09931799, 123.43892236, 49.16305256, -84.61380654, 124.67265965
3, 0.
*SHELL SECTION, ELSET=ELEM_101, COMPOSITE, ORIENTATION=ORI_101
1.25994730, 3, CFRP, 0.
** SOURCE_TET=4438
*ELSET, ELSET=ELEM_102
102
*ORIENTATION, NAME=ORI_102, SYSTEM=RECTANGULAR
77.28877076, -62.53221399, 101.18217761, 77.68903295, -61.96311853, 102.41340486
3, 0.
*SHELL SECTION, ELSET=ELEM_102, COMPOSITE, ORIENTATION=ORI_102
1.25892079, 3, CFRP, 0.
** SOURCE_TET=4125
*ELSET, ELSET=ELEM_103
103
*ORIENTATION, NAME=ORI_103, SYSTEM=RECTANGULAR
77.00154085, -61.81472144, 115.78716023, 77.37680752, -61.24260553, 117.02484287
3, 0.
*SHELL SECTION, ELSET=ELEM_103, COMPOSITE, ORIENTATION=ORI_103
1.25908864, 3, CFRP, 0.
** SOURCE_TET=4602
*ELSET, ELSET=ELEM_104
104
*ORIENTATION, NAME=ORI_104, SYSTEM=RECTANGULAR
67.99459875, -72.42577378, 93.25928141, 68.54642081, -71.97588572, 94.48120331
3, 0.
*SHELL SECTION, ELSET=ELEM_104, COMPOSITE, ORIENTATION=ORI_104
1.25869226, 3, CFRP, 0.
** SOURCE_TET=5916
*ELSET, ELSET=ELEM_105
105
*ORIENTATION, NAME=ORI_105, SYSTEM=RECTANGULAR
68.50941306, -70.33034538, 122.94724877, 68.86609580, -69.74219438, 124.18290884
3, 0.
*SHELL SECTION, ELSET=ELEM_105, COMPOSITE, ORIENTATION=ORI_105
1.26014829, 3, CFRP, 0.
** SOURCE_TET=4913
*ELSET, ELSET=ELEM_106
106
*ORIENTATION, NAME=ORI_106, SYSTEM=RECTANGULAR
91.12645195, -39.74170744, 101.41841244, 91.35723325, -39.08551151, 102.64973161
3, 0.
*SHELL SECTION, ELSET=ELEM_106, COMPOSITE, ORIENTATION=ORI_106
1.25892413, 3, CFRP, 0.
** SOURCE_TET=4313
*ELSET, ELSET=ELEM_107
107
*ORIENTATION, NAME=ORI_107, SYSTEM=RECTANGULAR
90.42650067, -39.30898801, 116.50256036, 90.61567828, -38.65016308, 117.73955734
3, 0.
*SHELL SECTION, ELSET=ELEM_107, COMPOSITE, ORIENTATION=ORI_107
1.25911593, 3, CFRP, 0.
** SOURCE_TET=5085
*ELSET, ELSET=ELEM_108
108
*ORIENTATION, NAME=ORI_108, SYSTEM=RECTANGULAR
84.84797462, -51.77888233, 93.55947062, 85.25775602, -51.19805071, 94.78205552
3, 0.
*SHELL SECTION, ELSET=ELEM_108, COMPOSITE, ORIENTATION=ORI_108
1.25870550, 3, CFRP, 0.
** SOURCE_TET=3147
*ELSET, ELSET=ELEM_109
109
*ORIENTATION, NAME=ORI_109, SYSTEM=RECTANGULAR
83.97085926, -50.68478053, 123.25817560, 84.16137180, -50.01931418, 124.49140693
3, 0.
*SHELL SECTION, ELSET=ELEM_109, COMPOSITE, ORIENTATION=ORI_109
1.25998187, 3, CFRP, 0.
** SOURCE_TET=6572
*ELSET, ELSET=ELEM_110
110
*ORIENTATION, NAME=ORI_110, SYSTEM=RECTANGULAR
95.21745728, -29.06873508, 94.68832477, 95.46219128, -28.40365156, 95.91215858
3, 0.
*SHELL SECTION, ELSET=ELEM_110, COMPOSITE, ORIENTATION=ORI_110
1.25872815, 3, CFRP, 0.
** SOURCE_TET=6612
*ELSET, ELSET=ELEM_111
111
*ORIENTATION, NAME=ORI_111, SYSTEM=RECTANGULAR
93.81161242, -28.74546018, 123.72901136, 93.86722348, -28.05675633, 124.96294589
3, 0.
*SHELL SECTION, ELSET=ELEM_111, COMPOSITE, ORIENTATION=ORI_111
1.25950253, 3, CFRP, 0.
** SOURCE_TET=4316
*ELSET, ELSET=ELEM_112
112
*ORIENTATION, NAME=ORI_112, SYSTEM=RECTANGULAR
99.09334134, -7.55978361, -69.69584861, 99.16731773, -6.94296331, -68.42539191
3, 0.
*SHELL SECTION, ELSET=ELEM_112, COMPOSITE, ORIENTATION=ORI_112
1.26179957, 3, CFRP, 0.
** SOURCE_TET=3711
*ELSET, ELSET=ELEM_113
113
*ORIENTATION, NAME=ORI_113, SYSTEM=RECTANGULAR
98.72126676, 9.30621027, -69.81755925, 98.63558405, 9.92978151, -68.55114013
3, 0.
*SHELL SECTION, ELSET=ELEM_113, COMPOSITE, ORIENTATION=ORI_113
1.26155055, 3, CFRP, 0.
** SOURCE_TET=7438
*ELSET, ELSET=ELEM_114
114
*ORIENTATION, NAME=ORI_114, SYSTEM=RECTANGULAR
98.26465319, -14.96543287, -80.74699738, 98.32182029, -14.37261583, -79.46430494
3, 0.
*SHELL SECTION, ELSET=ELEM_114, COMPOSITE, ORIENTATION=ORI_114
1.26254404, 3, CFRP, 0.
** SOURCE_TET=5724
*ELSET, ELSET=ELEM_115
115
*ORIENTATION, NAME=ORI_115, SYSTEM=RECTANGULAR
98.09122800, 15.99619296, -81.41785659, 97.96787308, 16.59339266, -80.14187223
3, 0.
*SHELL SECTION, ELSET=ELEM_115, COMPOSITE, ORIENTATION=ORI_115
1.26217759, 3, CFRP, 0.
** SOURCE_TET=4083
*ELSET, ELSET=ELEM_116
116
*ORIENTATION, NAME=ORI_116, SYSTEM=RECTANGULAR
99.08885213, -7.60118432, -42.20324730, 99.16995581, -6.92458274, -40.96404090
3, 0.
*SHELL SECTION, ELSET=ELEM_116, COMPOSITE, ORIENTATION=ORI_116
1.26016033, 3, CFRP, 0.
** SOURCE_TET=3823
*ELSET, ELSET=ELEM_117
117
*ORIENTATION, NAME=ORI_117, SYSTEM=RECTANGULAR
98.91391028, 8.58125039, -42.13257838, 98.82833109, 9.25741594, -40.89343498
3, 0.
*SHELL SECTION, ELSET=ELEM_117, COMPOSITE, ORIENTATION=ORI_117
1.26015890, 3, CFRP, 0.
** SOURCE_TET=4085
*ELSET, ELSET=ELEM_118
118
*ORIENTATION, NAME=ORI_118, SYSTEM=RECTANGULAR
98.14511860, -15.46974071, -55.94918763, 98.22420500, -14.81070099, -54.70042345
3, 0.
*SHELL SECTION, ELSET=ELEM_118, COMPOSITE, ORIENTATION=ORI_118
1.26061523, 3, CFRP, 0.
** SOURCE_TET=3739
*ELSET, ELSET=ELEM_119
119
*ORIENTATION, NAME=ORI_119, SYSTEM=RECTANGULAR
97.66507832, 17.58978881, -55.99630084, 97.59139640, 18.24198936, -54.74362155
3, 0.
*SHELL SECTION, ELSET=ELEM_119, COMPOSITE, ORIENTATION=ORI_119
1.26083660, 3, CFRP, 0.
** SOURCE_TET=4268
*ELSET, ELSET=ELEM_120
120
*ORIENTATION, NAME=ORI_120, SYSTEM=RECTANGULAR
99.08494867, -7.62976232, -14.71717062, 99.16985672, -6.92179301, -13.49587210
3, 0.
*SHELL SECTION, ELSET=ELEM_120, COMPOSITE, ORIENTATION=ORI_120
1.25931954, 3, CFRP, 0.
** SOURCE_TET=4797
*ELSET, ELSET=ELEM_121
121
*ORIENTATION, NAME=ORI_121, SYSTEM=RECTANGULAR
99.02442633, 8.13440180, -14.71717062, 98.93951828, 8.84237111, -13.49587210
3, 0.
*SHELL SECTION, ELSET=ELEM_121, COMPOSITE, ORIENTATION=ORI_121
1.25931954, 3, CFRP, 0.
** SOURCE_TET=3861
*ELSET, ELSET=ELEM_122
122
*ORIENTATION, NAME=ORI_122, SYSTEM=RECTANGULAR
98.14217894, -15.49512018, -28.45663214, 98.22506151, -14.80330586, -27.22597239
3, 0.
*SHELL SECTION, ELSET=ELEM_122, COMPOSITE, ORIENTATION=ORI_122
1.25973332, 3, CFRP, 0.
** SOURCE_TET=4359
*ELSET, ELSET=ELEM_123
123
*ORIENTATION, NAME=ORI_123, SYSTEM=RECTANGULAR
97.96532196, 16.45096207, -28.38593058, 97.88716200, 17.14340823, -27.15531718
3, 0.
*SHELL SECTION, ELSET=ELEM_123, COMPOSITE, ORIENTATION=ORI_123
1.25973201, 3, CFRP, 0.
** SOURCE_TET=4207
*ELSET, ELSET=ELEM_124
124
*ORIENTATION, NAME=ORI_124, SYSTEM=RECTANGULAR
99.07878358, -7.66534334, 12.74979285, 99.16683791, -6.93265261, 13.95619689
3, 0.
*SHELL SECTION, ELSET=ELEM_124, COMPOSITE, ORIENTATION=ORI_124
1.25868428, 3, CFRP, 0.
** SOURCE_TET=6356
*ELSET, ELSET=ELEM_125
125
*ORIENTATION, NAME=ORI_125, SYSTEM=RECTANGULAR
99.58337379, 5.37261000, 12.72337304, 99.52634158, 6.10806979, 13.92995757
3, 0.
*SHELL SECTION, ELSET=ELEM_125, COMPOSITE, ORIENTATION=ORI_125
1.25868464, 3, CFRP, 0.
** SOURCE_TET=4416
*ELSET, ELSET=ELEM_126
126
*ORIENTATION, NAME=ORI_126, SYSTEM=RECTANGULAR
98.13518019, -15.53467587, -0.99701799, 98.22097589, -14.81788074, 0.21905924
3, 0.
*SHELL SECTION, ELSET=ELEM_126, COMPOSITE, ORIENTATION=ORI_126
1.25907791, 3, CFRP, 0.
** SOURCE_TET=5834
*ELSET, ELSET=ELEM_127
127
*ORIENTATION, NAME=ORI_127, SYSTEM=RECTANGULAR
98.60307079, 13.26396768, -1.02306359, 98.56391581, 13.98552336, 0.19259437
3, 0.
*SHELL SECTION, ELSET=ELEM_127, COMPOSITE, ORIENTATION=ORI_127
1.25907838, 3, CFRP, 0.
** SOURCE_TET=5073
*ELSET, ELSET=ELEM_128
128
*ORIENTATION, NAME=ORI_128, SYSTEM=RECTANGULAR
99.08078995, -7.66443803, 40.27432088, 99.17086990, -6.91334505, 41.46920370
3, 0.
*SHELL SECTION, ELSET=ELEM_128, COMPOSITE, ORIENTATION=ORI_128
1.25822759, 3, CFRP, 0.
** SOURCE_TET=5477
*ELSET, ELSET=ELEM_129
129
*ORIENTATION, NAME=ORI_129, SYSTEM=RECTANGULAR
99.24605148, 7.16083034, 39.32295764, 99.16691890, 7.91241341, 40.51830735
3, 0.
*SHELL SECTION, ELSET=ELEM_129, COMPOSITE, ORIENTATION=ORI_129
1.25824308, 3, CFRP, 0.
** SOURCE_TET=5319
*ELSET, ELSET=ELEM_130
130
*ORIENTATION, NAME=ORI_130, SYSTEM=RECTANGULAR
98.13238957, -15.55447018, 26.49810423, 98.22165623, -14.81304961, 27.69907342
3, 0.
*SHELL SECTION, ELSET=ELEM_130, COMPOSITE, ORIENTATION=ORI_130
1.25845397, 3, CFRP, 0.
** SOURCE_TET=6887
*ELSET, ELSET=ELEM_131
131
*ORIENTATION, NAME=ORI_131, SYSTEM=RECTANGULAR
98.86778634, 12.30951910, 25.52044479, 98.77398404, 13.05003237, 26.72162805
3, 0.
*SHELL SECTION, ELSET=ELEM_131, COMPOSITE, ORIENTATION=ORI_131
1.25847018, 3, CFRP, 0.
** SOURCE_TET=4522
*ELSET, ELSET=ELEM_132
132
*ORIENTATION, NAME=ORI_132, SYSTEM=RECTANGULAR
99.08167852, -7.65702904, 67.77602740, 99.17066669, -6.91503943, 68.97666578
3, 0.
*SHELL SECTION, ELSET=ELEM_132, COMPOSITE, ORIENTATION=ORI_132
1.25820982, 3, CFRP, 0.
** SOURCE_TET=6410
*ELSET, ELSET=ELEM_133
133
*ORIENTATION, NAME=ORI_133, SYSTEM=RECTANGULAR
99.33893389, 6.72048832, 67.67104489, 99.26578185, 7.46416193, 68.87171068
3, 0.
*SHELL SECTION, ELSET=ELEM_133, COMPOSITE, ORIENTATION=ORI_133
1.25820851, 3, CFRP, 0.
** SOURCE_TET=5616
*ELSET, ELSET=ELEM_134
134
*ORIENTATION, NAME=ORI_134, SYSTEM=RECTANGULAR
98.13507503, -15.54987548, 54.02356778, 98.22564708, -14.79467937, 55.21582427
3, 0.
*SHELL SECTION, ELSET=ELEM_134, COMPOSITE, ORIENTATION=ORI_134
1.25803983, 3, CFRP, 0.
** SOURCE_TET=5915
*ELSET, ELSET=ELEM_135
135
*ORIENTATION, NAME=ORI_135, SYSTEM=RECTANGULAR
98.60396991, 13.65051386, 52.96689872, 98.53249068, 14.40883136, 54.15847134
3, 0.
*SHELL SECTION, ELSET=ELEM_135, COMPOSITE, ORIENTATION=ORI_135
1.25802720, 3, CFRP, 0.
** SOURCE_TET=6642
*ELSET, ELSET=ELEM_136
136
*ORIENTATION, NAME=ORI_136, SYSTEM=RECTANGULAR
98.38804212, -14.30585068, 79.38717043, 98.49012970, -13.58683751, 80.60067700
3, 0.
*SHELL SECTION, ELSET=ELEM_136, COMPOSITE, ORIENTATION=ORI_136
1.25848210, 3, CFRP, 0.
** SOURCE_TET=7072
*ELSET, ELSET=ELEM_137
137
*ORIENTATION, NAME=ORI_137, SYSTEM=RECTANGULAR
98.66470032, 13.40961981, 79.27843114, 98.58930694, 14.13169608, 80.49207100
3, 0.
*SHELL SECTION, ELSET=ELEM_137, COMPOSITE, ORIENTATION=ORI_137
1.25848067, 3, CFRP, 0.
** SOURCE_TET=4605
*ELSET, ELSET=ELEM_138
138
*ORIENTATION, NAME=ORI_138, SYSTEM=RECTANGULAR
90.79588131, 40.31163915, -103.30277991, 90.63012179, 40.82581189, -101.99581771
3, 0.
*SHELL SECTION, ELSET=ELEM_138, COMPOSITE, ORIENTATION=ORI_138
1.26428378, 3, CFRP, 0.
** SOURCE_TET=4211
*ELSET, ELSET=ELEM_139
139
*ORIENTATION, NAME=ORI_139, SYSTEM=RECTANGULAR
90.06612444, 39.56458516, -118.74749932, 89.96025036, 40.07129991, -117.43143290
3, 0.
*SHELL SECTION, ELSET=ELEM_139, COMPOSITE, ORIENTATION=ORI_139
1.26532805, 3, CFRP, 0.
** SOURCE_TET=6348
*ELSET, ELSET=ELEM_140
140
*ORIENTATION, NAME=ORI_140, SYSTEM=RECTANGULAR
95.07369777, 29.67787478, -96.58448010, 94.87074550, 30.20591806, -95.28833941
3, 0.
*SHELL SECTION, ELSET=ELEM_140, COMPOSITE, ORIENTATION=ORI_140
1.26345146, 3, CFRP, 0.
** SOURCE_TET=7432
*ELSET, ELSET=ELEM_141
141
*ORIENTATION, NAME=ORI_141, SYSTEM=RECTANGULAR
93.82576193, 28.08572059, -124.79817170, 93.84351468, 28.61044617, -123.48502742
3, 0.
*SHELL SECTION, ELSET=ELEM_141, COMPOSITE, ORIENTATION=ORI_141
1.26598370, 3, CFRP, 0.
** SOURCE_TET=3349
*ELSET, ELSET=ELEM_142
142
*ORIENTATION, NAME=ORI_142, SYSTEM=RECTANGULAR
76.81830688, 62.99246475, -103.06680318, 76.51877245, 63.44248289, -101.75998919
3, 0.
*SHELL SECTION, ELSET=ELEM_142, COMPOSITE, ORIENTATION=ORI_142
1.26426911, 3, CFRP, 0.
** SOURCE_TET=4074
*ELSET, ELSET=ELEM_143
143
*ORIENTATION, NAME=ORI_143, SYSTEM=RECTANGULAR
74.83326746, 64.29871008, -117.30973606, 74.57201443, 64.74576723, -115.99372438
3, 0.
*SHELL SECTION, ELSET=ELEM_143, COMPOSITE, ORIENTATION=ORI_143
1.26519501, 3, CFRP, 0.
** SOURCE_TET=5135
*ELSET, ELSET=ELEM_144
144
*ORIENTATION, NAME=ORI_144, SYSTEM=RECTANGULAR
84.58249896, 52.34243955, -95.45675765, 84.24357775, 52.80318117, -94.16337079
3, 0.
*SHELL SECTION, ELSET=ELEM_144, COMPOSITE, ORIENTATION=ORI_144
1.26328254, 3, CFRP, 0.
** SOURCE_TET=4847
*ELSET, ELSET=ELEM_145
145
*ORIENTATION, NAME=ORI_145, SYSTEM=RECTANGULAR
85.28871513, 48.43154209, -125.24497477, 85.20217616, 48.93395334, -123.92584856
3, 0.
*SHELL SECTION, ELSET=ELEM_145, COMPOSITE, ORIENTATION=ORI_145
1.26711929, 3, CFRP, 0.
** SOURCE_TET=4183
*ELSET, ELSET=ELEM_146
146
*ORIENTATION, NAME=ORI_146, SYSTEM=RECTANGULAR
79.43701698, 57.81697807, -123.80941177, 79.21801759, 58.27277593, -122.48869697
3, 0.
*SHELL SECTION, ELSET=ELEM_146, COMPOSITE, ORIENTATION=ORI_146
1.26586282, 3, CFRP, 0.
** SOURCE_TET=2993
*ELSET, ELSET=ELEM_147
147
*ORIENTATION, NAME=ORI_147, SYSTEM=RECTANGULAR
56.97451142, 81.38186493, -103.06680284, 56.56467206, 81.73438109, -101.75998837
3, 0.
*SHELL SECTION, ELSET=ELEM_147, COMPOSITE, ORIENTATION=ORI_147
1.26426911, 3, CFRP, 0.
** SOURCE_TET=2751
*ELSET, ELSET=ELEM_148
148
*ORIENTATION, NAME=ORI_148, SYSTEM=RECTANGULAR
56.51092023, 80.68582201, -118.21589634, 56.14697159, 81.05293569, -116.89954952
3, 0.
*SHELL SECTION, ELSET=ELEM_148, COMPOSITE, ORIENTATION=ORI_148
1.26527691, 3, CFRP, 0.
** SOURCE_TET=2423
*ELSET, ELSET=ELEM_149
149
*ORIENTATION, NAME=ORI_149, SYSTEM=RECTANGULAR
67.58962578, 72.90598306, -95.21926751, 67.14131175, 73.25463823, -93.92410185
3, 0.
*SHELL SECTION, ELSET=ELEM_149, COMPOSITE, ORIENTATION=ORI_149
1.26341546, 3, CFRP, 0.
** SOURCE_TET=6684
*ELSET, ELSET=ELEM_150
150
*ORIENTATION, NAME=ORI_150, SYSTEM=RECTANGULAR
65.05275379, 73.43011284, -124.60348183, 64.78100521, 73.87625827, -123.28928741
3, 0.
*SHELL SECTION, ELSET=ELEM_150, COMPOSITE, ORIENTATION=ORI_150
1.26595867, 3, CFRP, 0.
** SOURCE_TET=2868
*ELSET, ELSET=ELEM_151
151
*ORIENTATION, NAME=ORI_151, SYSTEM=RECTANGULAR
32.90518838, 93.73553980, -103.06680764, 32.41542379, 93.96441559, -101.75999987
3, 0.
*SHELL SECTION, ELSET=ELEM_151, COMPOSITE, ORIENTATION=ORI_151
1.26426911, 3, CFRP, 0.
** SOURCE_TET=2456
*ELSET, ELSET=ELEM_152
152
*ORIENTATION, NAME=ORI_152, SYSTEM=RECTANGULAR
34.19362150, 92.30718475, -118.32804460, 33.74860799, 92.57272637, -117.01219863
3, 0.
*SHELL SECTION, ELSET=ELEM_152, COMPOSITE, ORIENTATION=ORI_152
1.26528752, 3, CFRP, 0.
** SOURCE_TET=3704
*ELSET, ELSET=ELEM_153
153
*ORIENTATION, NAME=ORI_153, SYSTEM=RECTANGULAR
45.41542250, 88.43689568, -95.22014157, 44.88692889, 88.65314753, -93.92633724
3, 0.
*SHELL SECTION, ELSET=ELEM_153, COMPOSITE, ORIENTATION=ORI_153
1.26331806, 3, CFRP, 0.
** SOURCE_TET=5751
*ELSET, ELSET=ELEM_154
154
*ORIENTATION, NAME=ORI_154, SYSTEM=RECTANGULAR
46.17721447, 86.24370652, -125.61770430, 45.84295533, 86.63465331, -124.30034656
3, 0.
*SHELL SECTION, ELSET=ELEM_154, COMPOSITE, ORIENTATION=ORI_154
1.26709783, 3, CFRP, 0.
** SOURCE_TET=2835
*ELSET, ELSET=ELEM_155
155
*ORIENTATION, NAME=ORI_155, SYSTEM=RECTANGULAR
6.39451161, 99.13472759, -103.59541435, 5.86246129, 99.22664001, -102.28832806
3, 0.
*SHELL SECTION, ELSET=ELEM_155, COMPOSITE, ORIENTATION=ORI_155
1.26430190, 3, CFRP, 0.
** SOURCE_TET=2224
*ELSET, ELSET=ELEM_156
156
*ORIENTATION, NAME=ORI_156, SYSTEM=RECTANGULAR
5.19668182, 98.27474378, -118.55584180, 4.69491012, 98.41202836, -117.24078359
3, 0.
*SHELL SECTION, ELSET=ELEM_156, COMPOSITE, ORIENTATION=ORI_156
1.26530886, 3, CFRP, 0.
** SOURCE_TET=2344
*ELSET, ELSET=ELEM_157
157
*ORIENTATION, NAME=ORI_157, SYSTEM=RECTANGULAR
19.86799575, 97.41139827, -95.74779614, 19.30481433, 97.47292658, -94.45201801
3, 0.
*SHELL SECTION, ELSET=ELEM_157, COMPOSITE, ORIENTATION=ORI_157
1.26345944, 3, CFRP, 0.
** SOURCE_TET=5456
*ELSET, ELSET=ELEM_158
158
*ORIENTATION, NAME=ORI_158, SYSTEM=RECTANGULAR
14.40139627, 96.39887326, -127.31411101, 13.96242252, 96.64731095, -125.99290673
3, 0.
*SHELL SECTION, ELSET=ELEM_158, COMPOSITE, ORIENTATION=ORI_158
1.26749122, 3, CFRP, 0.
** SOURCE_TET=5506
*ELSET, ELSET=ELEM_159
159
*ORIENTATION, NAME=ORI_159, SYSTEM=RECTANGULAR
25.78920921, 94.03886410, -127.09046417, 25.37471437, 94.33591079, -125.77138977
3, 0.
*SHELL SECTION, ELSET=ELEM_159, COMPOSITE, ORIENTATION=ORI_159
1.26745081, 3, CFRP, 0.
** SOURCE_TET=3664
*ELSET, ELSET=ELEM_160
160
*ORIENTATION, NAME=ORI_160, SYSTEM=RECTANGULAR
-20.58879359, 97.16958482, -105.52635132, -21.12601663, 97.13483324, -104.21861139
3, 0.
*SHELL SECTION, ELSET=ELEM_160, COMPOSITE, ORIENTATION=ORI_160
1.26442099, 3, CFRP, 0.
** SOURCE_TET=2345
*ELSET, ELSET=ELEM_161
161
*ORIENTATION, NAME=ORI_161, SYSTEM=RECTANGULAR
-20.41088753, 96.23224876, -118.74825039, -20.93092853, 96.23111143, -117.43312452
3, 0.
*SHELL SECTION, ELSET=ELEM_161, COMPOSITE, ORIENTATION=ORI_161
1.26532722, 3, CFRP, 0.
** SOURCE_TET=5405
*ELSET, ELSET=ELEM_162
162
*ORIENTATION, NAME=ORI_162, SYSTEM=RECTANGULAR
-7.15149240, 99.16373184, -98.20900132, -7.70772490, 99.05642387, -96.91320411
3, 0.
*SHELL SECTION, ELSET=ELEM_162, COMPOSITE, ORIENTATION=ORI_162
1.26348960, 3, CFRP, 0.
** SOURCE_TET=3325
*ELSET, ELSET=ELEM_163
163
*ORIENTATION, NAME=ORI_163, SYSTEM=RECTANGULAR
-8.18141186, 97.23521938, -126.37599952, -8.67512433, 97.38572133, -125.05933814
3, 0.
*SHELL SECTION, ELSET=ELEM_163, COMPOSITE, ORIENTATION=ORI_163
1.26718020, 3, CFRP, 0.
** SOURCE_TET=3486
*ELSET, ELSET=ELEM_164
164
*ORIENTATION, NAME=ORI_164, SYSTEM=RECTANGULAR
-46.04566661, 88.02783078, -103.06685288, -46.54736310, 87.82604008, -101.76010840
3, 0.
*SHELL SECTION, ELSET=ELEM_164, COMPOSITE, ORIENTATION=ORI_164
1.26426911, 3, CFRP, 0.
** SOURCE_TET=2994
*ELSET, ELSET=ELEM_165
165
*ORIENTATION, NAME=ORI_165, SYSTEM=RECTANGULAR
-49.33806750, 85.32578164, -117.09498157, -49.84763546, 85.18887656, -115.78288497
3, 0.
*SHELL SECTION, ELSET=ELEM_165, COMPOSITE, ORIENTATION=ORI_165
1.26517606, 3, CFRP, 0.
** SOURCE_TET=4647
*ELSET, ELSET=ELEM_166
166
*ORIENTATION, NAME=ORI_166, SYSTEM=RECTANGULAR
-33.64101062, 93.56387438, -97.68031600, -34.15504546, 93.32436401, -96.38478407
3, 0.
*SHELL SECTION, ELSET=ELEM_166, COMPOSITE, ORIENTATION=ORI_166
1.26345837, 3, CFRP, 0.
** SOURCE_TET=2929
*ELSET, ELSET=ELEM_167
167
*ORIENTATION, NAME=ORI_167, SYSTEM=RECTANGULAR
-31.59420627, 91.94691048, -127.84708476, -32.11217725, 91.98199388, -126.53160948
3, 0.
*SHELL SECTION, ELSET=ELEM_167, COMPOSITE, ORIENTATION=ORI_167
1.26745009, 3, CFRP, 0.
** SOURCE_TET=7330
*ELSET, ELSET=ELEM_168
168
*ORIENTATION, NAME=ORI_168, SYSTEM=RECTANGULAR
-43.61654529, 87.15499626, -126.19688602, -44.11158587, 87.08285860, -124.87411205
3, 0.
*SHELL SECTION, ELSET=ELEM_168, COMPOSITE, ORIENTATION=ORI_168
1.26717937, 3, CFRP, 0.
** SOURCE_TET=3791
*ELSET, ELSET=ELEM_169
169
*ORIENTATION, NAME=ORI_169, SYSTEM=RECTANGULAR
-66.67837832, 73.58569066, -104.20532667, -67.10430917, 73.25645541, -102.89758546
3, 0.
*SHELL SECTION, ELSET=ELEM_169, COMPOSITE, ORIENTATION=ORI_169
1.26433957, 3, CFRP, 0.
** SOURCE_TET=3531
*ELSET, ELSET=ELEM_170
170
*ORIENTATION, NAME=ORI_170, SYSTEM=RECTANGULAR
-68.73256883, 70.71306683, -117.66879021, -69.16343822, 70.42220092, -116.35359114
3, 0.
*SHELL SECTION, ELSET=ELEM_170, COMPOSITE, ORIENTATION=ORI_170
1.26522660, 3, CFRP, 0.
** SOURCE_TET=7352
*ELSET, ELSET=ELEM_171
171
*ORIENTATION, NAME=ORI_171, SYSTEM=RECTANGULAR
-56.21453413, 82.25196186, -96.35912762, -56.66696937, 81.90893079, -95.06389327
3, 0.
*SHELL SECTION, ELSET=ELEM_171, COMPOSITE, ORIENTATION=ORI_171
1.26338017, 3, CFRP, 0.
** SOURCE_TET=6366
*ELSET, ELSET=ELEM_172
172
*ORIENTATION, NAME=ORI_172, SYSTEM=RECTANGULAR
-61.50756036, 76.59499278, -123.84383523, -61.96988609, 76.36746401, -122.52683653
3, 0.
*SHELL SECTION, ELSET=ELEM_172, COMPOSITE, ORIENTATION=ORI_172
1.26586974, 3, CFRP, 0.
** SOURCE_TET=4944
*ELSET, ELSET=ELEM_173
173
*ORIENTATION, NAME=ORI_173, SYSTEM=RECTANGULAR
-86.34036392, 49.03610438, -104.44853860, -86.65538912, 48.59998359, -103.14065566
3, 0.
*SHELL SECTION, ELSET=ELEM_173, COMPOSITE, ORIENTATION=ORI_173
1.26435459, 3, CFRP, 0.
** SOURCE_TET=3528
*ELSET, ELSET=ELEM_174
174
*ORIENTATION, NAME=ORI_174, SYSTEM=RECTANGULAR
-84.06010060, 50.96201796, -119.00974067, -84.42087535, 50.58405352, -117.69559286
3, 0.
*SHELL SECTION, ELSET=ELEM_174, COMPOSITE, ORIENTATION=ORI_174
1.26535320, 3, CFRP, 0.
** SOURCE_TET=4889
*ELSET, ELSET=ELEM_175
175
*ORIENTATION, NAME=ORI_175, SYSTEM=RECTANGULAR
-73.67882961, 66.96577714, -94.59610350, -74.06112097, 66.56308006, -93.29545428
3, 0.
*SHELL SECTION, ELSET=ELEM_175, COMPOSITE, ORIENTATION=ORI_175
1.26374829, 3, CFRP, 0.
** SOURCE_TET=3732
*ELSET, ELSET=ELEM_176
176
*ORIENTATION, NAME=ORI_176, SYSTEM=RECTANGULAR
-81.99934327, 56.37947351, -94.84324888, -82.31390457, 55.90396021, -93.54905481
3, 0.
*SHELL SECTION, ELSET=ELEM_176, COMPOSITE, ORIENTATION=ORI_176
1.26329029, 3, CFRP, 0.
** SOURCE_TET=2964
*ELSET, ELSET=ELEM_177
177
*ORIENTATION, NAME=ORI_177, SYSTEM=RECTANGULAR
-76.89777209, 60.41479218, -125.75024427, -77.33124954, 60.13989335, -124.43247041
3, 0.
*SHELL SECTION, ELSET=ELEM_177, COMPOSITE, ORIENTATION=ORI_177
1.26687574, 3, CFRP, 0.
** SOURCE_TET=4188
*ELSET, ELSET=ELEM_178
178
*ORIENTATION, NAME=ORI_178, SYSTEM=RECTANGULAR
-95.76245648, 26.43205345, -103.06694411, -95.95749398, 25.92736246, -101.76032735
3, 0.
*SHELL SECTION, ELSET=ELEM_178, COMPOSITE, ORIENTATION=ORI_178
1.26426911, 3, CFRP, 0.
** SOURCE_TET=7400
*ELSET, ELSET=ELEM_179
179
*ORIENTATION, NAME=ORI_179, SYSTEM=RECTANGULAR
-94.86830273, 26.39731386, -118.34900243, -95.09325246, 25.94408479, -117.02840370
3, 0.
*SHELL SECTION, ELSET=ELEM_179, COMPOSITE, ORIENTATION=ORI_179
1.26601815, 3, CFRP, 0.
** SOURCE_TET=6453
*ELSET, ELSET=ELEM_180
180
*ORIENTATION, NAME=ORI_180, SYSTEM=RECTANGULAR
-92.55615048, 37.00589600, -96.60207220, -92.74017298, 36.46962206, -95.30648508
3, 0.
*SHELL SECTION, ELSET=ELEM_180, COMPOSITE, ORIENTATION=ORI_180
1.26339364, 3, CFRP, 0.
** SOURCE_TET=2445
*ELSET, ELSET=ELEM_181
181
*ORIENTATION, NAME=ORI_181, SYSTEM=RECTANGULAR
-89.32891635, 38.85935799, -126.43292193, -89.71412491, 38.50785967, -125.11836372
3, 0.
*SHELL SECTION, ELSET=ELEM_181, COMPOSITE, ORIENTATION=ORI_181
1.26726580, 3, CFRP, 0.
** SOURCE_TET=4403
*ELSET, ELSET=ELEM_182
182
*ORIENTATION, NAME=ORI_182, SYSTEM=RECTANGULAR
-99.33734746, -0.29001331, -104.04269842, -99.39631338, -0.82676365, -102.73563220
3, 0.
*SHELL SECTION, ELSET=ELEM_182, COMPOSITE, ORIENTATION=ORI_182
1.26432955, 3, CFRP, 0.
** SOURCE_TET=3801
*ELSET, ELSET=ELEM_183
183
*ORIENTATION, NAME=ORI_183, SYSTEM=RECTANGULAR
-98.32945144, -1.30055137, -118.85865318, -98.43903798, -1.81336378, -117.54525521
3, 0.
*SHELL SECTION, ELSET=ELEM_183, COMPOSITE, ORIENTATION=ORI_183
1.26533914, 3, CFRP, 0.
** SOURCE_TET=4245
*ELSET, ELSET=ELEM_184
184
*ORIENTATION, NAME=ORI_184, SYSTEM=RECTANGULAR
-98.54116624, 13.26105937, -96.19172661, -98.56137158, 12.70720959, -94.89063393
3, 0.
*SHELL SECTION, ELSET=ELEM_184, COMPOSITE, ORIENTATION=ORI_184
1.26384544, 3, CFRP, 0.
** SOURCE_TET=3300
*ELSET, ELSET=ELEM_185
185
*ORIENTATION, NAME=ORI_185, SYSTEM=RECTANGULAR
-96.51062722, 12.19052285, -126.27803281, -96.78616257, 11.74725855, -124.96365195
3, 0.
*SHELL SECTION, ELSET=ELEM_185, COMPOSITE, ORIENTATION=ORI_185
1.26715219, 3, CFRP, 0.
** SOURCE_TET=4538
*ELSET, ELSET=ELEM_186
186
*ORIENTATION, NAME=ORI_186, SYSTEM=RECTANGULAR
-95.55489200, -27.17287994, -103.06681329, -95.45943354, -27.70500944, -101.76001342
3, 0.
*SHELL SECTION, ELSET=ELEM_186, COMPOSITE, ORIENTATION=ORI_186
1.26426911, 3, CFRP, 0.
** SOURCE_TET=4184
*ELSET, ELSET=ELEM_187
187
*ORIENTATION, NAME=ORI_187, SYSTEM=RECTANGULAR
-94.64134131, -27.30067708, -118.24483950, -94.59208092, -27.81456422, -116.92821753
3, 0.
*SHELL SECTION, ELSET=ELEM_187, COMPOSITE, ORIENTATION=ORI_187
1.26528049, 3, CFRP, 0.
** SOURCE_TET=4574
*ELSET, ELSET=ELEM_188
188
*ORIENTATION, NAME=ORI_188, SYSTEM=RECTANGULAR
-98.44390107, -13.81369249, -96.19161813, -98.31663167, -14.35317774, -94.89055773
3, 0.
*SHELL SECTION, ELSET=ELEM_188, COMPOSITE, ORIENTATION=ORI_188
1.26384544, 3, CFRP, 0.
** SOURCE_TET=7394
*ELSET, ELSET=ELEM_189
189
*ORIENTATION, NAME=ORI_189, SYSTEM=RECTANGULAR
-96.40167028, -14.93537448, -126.17898632, -96.52337199, -15.45359603, -124.86878210
3, 0.
*SHELL SECTION, ELSET=ELEM_189, COMPOSITE, ORIENTATION=ORI_189
1.26616025, 3, CFRP, 0.
** SOURCE_TET=3621
*ELSET, ELSET=ELEM_190
190
*ORIENTATION, NAME=ORI_190, SYSTEM=RECTANGULAR
-84.67347855, -51.95676195, -103.07720094, -84.43807729, -52.44339821, -101.77038367
3, 0.
*SHELL SECTION, ELSET=ELEM_190, COMPOSITE, ORIENTATION=ORI_190
1.26426971, 3, CFRP, 0.
** SOURCE_TET=3790
*ELSET, ELSET=ELEM_191
191
*ORIENTATION, NAME=ORI_191, SYSTEM=RECTANGULAR
-84.15029112, -51.15995460, -118.30566564, -83.96585127, -51.64234969, -116.98912588
3, 0.
*SHELL SECTION, ELSET=ELEM_191, COMPOSITE, ORIENTATION=ORI_191
1.26528573, 3, CFRP, 0.
** SOURCE_TET=4486
*ELSET, ELSET=ELEM_192
192
*ORIENTATION, NAME=ORI_192, SYSTEM=RECTANGULAR
-91.03410473, -39.95125213, -95.23065379, -90.76017994, -40.45276384, -93.93703437
3, 0.
*SHELL SECTION, ELSET=ELEM_192, COMPOSITE, ORIENTATION=ORI_192
1.26331234, 3, CFRP, 0.
** SOURCE_TET=4996
*ELSET, ELSET=ELEM_193
193
*ORIENTATION, NAME=ORI_193, SYSTEM=RECTANGULAR
-89.48887842, -39.24536695, -125.62799799, -89.46682471, -39.77743429, -124.31787663
3, 0.
*SHELL SECTION, ELSET=ELEM_193, COMPOSITE, ORIENTATION=ORI_193
1.26608872, 3, CFRP, 0.
** SOURCE_TET=3078
*ELSET, ELSET=ELEM_194
194
*ORIENTATION, NAME=ORI_194, SYSTEM=RECTANGULAR
-67.52534277, -72.86584234, -103.06680237, -67.16732282, -73.27088051, -101.75998723
3, 0.
*SHELL SECTION, ELSET=ELEM_194, COMPOSITE, ORIENTATION=ORI_194
1.26426911, 3, CFRP, 0.
** SOURCE_TET=3080
*ELSET, ELSET=ELEM_195
195
*ORIENTATION, NAME=ORI_195, SYSTEM=RECTANGULAR
-67.90732168, -71.23771315, -118.45244216, -67.60605266, -71.65865833, -117.13637144
3, 0.
*SHELL SECTION, ELSET=ELEM_195, COMPOSITE, ORIENTATION=ORI_195
1.26529932, 3, CFRP, 0.
** SOURCE_TET=2939
*ELSET, ELSET=ELEM_196
196
*ORIENTATION, NAME=ORI_196, SYSTEM=RECTANGULAR
-76.88167594, -63.03321636, -95.23033959, -76.48357691, -63.44154165, -93.93620373
3, 0.
*SHELL SECTION, ELSET=ELEM_196, COMPOSITE, ORIENTATION=ORI_196
1.26334453, 3, CFRP, 0.
** SOURCE_TET=2418
*ELSET, ELSET=ELEM_197
197
*ORIENTATION, NAME=ORI_197, SYSTEM=RECTANGULAR
-76.65629830, -60.56431981, -125.83348751, -76.50901414, -61.06530674, -124.51921225
3, 0.
*SHELL SECTION, ELSET=ELEM_197, COMPOSITE, ORIENTATION=ORI_197
1.26687729, 3, CFRP, 0.
** SOURCE_TET=2596
*ELSET, ELSET=ELEM_198
198
*ORIENTATION, NAME=ORI_198, SYSTEM=RECTANGULAR
-45.36235562, -88.38189614, -103.06680461, -44.90832722, -88.67532517, -101.75999260
3, 0.
*SHELL SECTION, ELSET=ELEM_198, COMPOSITE, ORIENTATION=ORI_198
1.26426911, 3, CFRP, 0.
** SOURCE_TET=2490
*ELSET, ELSET=ELEM_199
199
*ORIENTATION, NAME=ORI_199, SYSTEM=RECTANGULAR
-43.90418045, -88.04433297, -118.66545490, -43.50091581, -88.37235775, -117.35024489
3, 0.
*SHELL SECTION, ELSET=ELEM_199, COMPOSITE, ORIENTATION=ORI_199
1.26531959, 3, CFRP, 0.
** SOURCE_TET=3493
*ELSET, ELSET=ELEM_200
200
*ORIENTATION, NAME=ORI_200, SYSTEM=RECTANGULAR
-57.03471617, -81.42902838, -95.22020738, -56.54040169, -81.71536807, -93.92650619
3, 0.
*SHELL SECTION, ELSET=ELEM_200, COMPOSITE, ORIENTATION=ORI_200
1.26331174, 3, CFRP, 0.
** SOURCE_TET=3337
*ELSET, ELSET=ELEM_201
201
*ORIENTATION, NAME=ORI_201, SYSTEM=RECTANGULAR
-60.63392208, -76.30468498, -127.34410188, -60.37142147, -76.74441029, -126.02587009
3, 0.
*SHELL SECTION, ELSET=ELEM_201, COMPOSITE, ORIENTATION=ORI_201
1.26730812, 3, CFRP, 0.
** SOURCE_TET=5054
*ELSET, ELSET=ELEM_202
202
*ORIENTATION, NAME=ORI_202, SYSTEM=RECTANGULAR
-51.35015369, -82.79375016, -127.55408442, -51.04427701, -83.19651322, -126.23339469
3, 0.
*SHELL SECTION, ELSET=ELEM_202, COMPOSITE, ORIENTATION=ORI_202
1.26734638, 3, CFRP, 0.
** SOURCE_TET=2222
*ELSET, ELSET=ELEM_203
203
*ORIENTATION, NAME=ORI_203, SYSTEM=RECTANGULAR
-19.83949645, -97.34212368, -103.07184726, -19.32313082, -97.50221127, -101.76504257
3, 0.
*SHELL SECTION, ELSET=ELEM_203, COMPOSITE, ORIENTATION=ORI_203
1.26426935, 3, CFRP, 0.
** SOURCE_TET=2129
*ELSET, ELSET=ELEM_204
204
*ORIENTATION, NAME=ORI_204, SYSTEM=RECTANGULAR
-19.99944822, -96.42014602, -118.34529243, -19.51997514, -96.61579917, -117.02930405
3, 0.
*SHELL SECTION, ELSET=ELEM_204, COMPOSITE, ORIENTATION=ORI_204
1.26528883, 3, CFRP, 0.
** SOURCE_TET=1524
*ELSET, ELSET=ELEM_205
205
*ORIENTATION, NAME=ORI_205, SYSTEM=RECTANGULAR
-32.95263453, -93.79702492, -95.22432645, -32.40248718, -93.93828777, -93.92918835
3, 0.
*SHELL SECTION, ELSET=ELEM_205, COMPOSITE, ORIENTATION=ORI_205
1.26341009, 3, CFRP, 0.
** SOURCE_TET=5149
*ELSET, ELSET=ELEM_206
206
*ORIENTATION, NAME=ORI_206, SYSTEM=RECTANGULAR
-31.60199932, -92.44659529, -126.08289378, -31.21209321, -92.78116567, -124.76530664
3, 0.
*SHELL SECTION, ELSET=ELEM_206, COMPOSITE, ORIENTATION=ORI_206
1.26718843, 3, CFRP, 0.
** SOURCE_TET=2469
*ELSET, ELSET=ELEM_207
207
*ORIENTATION, NAME=ORI_207, SYSTEM=RECTANGULAR
7.16329017, -99.08476147, -103.06682448, 7.70374924, -99.09956134, -101.76004028
3, 0.
*SHELL SECTION, ELSET=ELEM_207, COMPOSITE, ORIENTATION=ORI_207
1.26426911, 3, CFRP, 0.
** SOURCE_TET=2277
*ELSET, ELSET=ELEM_208
208
*ORIENTATION, NAME=ORI_208, SYSTEM=RECTANGULAR
6.67330788, -98.30920040, -118.08255328, 7.18825482, -98.36099835, -116.76644287
3, 0.
*SHELL SECTION, ELSET=ELEM_208, COMPOSITE, ORIENTATION=ORI_208
1.26526427, 3, CFRP, 0.
** SOURCE_TET=2811
*ELSET, ELSET=ELEM_209
209
*ORIENTATION, NAME=ORI_209, SYSTEM=RECTANGULAR
-6.42670888, -99.20802686, -95.22520698, -5.85570814, -99.19581601, -93.93144926
3, 0.
*SHELL SECTION, ELSET=ELEM_209, COMPOSITE, ORIENTATION=ORI_209
1.26331210, 3, CFRP, 0.
** SOURCE_TET=3123
*ELSET, ELSET=ELEM_210
210
*ORIENTATION, NAME=ORI_210, SYSTEM=RECTANGULAR
-7.04621759, -97.39823200, -125.49886588, -6.58237806, -97.63621160, -124.18424860
3, 0.
*SHELL SECTION, ELSET=ELEM_210, COMPOSITE, ORIENTATION=ORI_210
1.26712668, 3, CFRP, 0.
** SOURCE_TET=3209
*ELSET, ELSET=ELEM_211
211
*ORIENTATION, NAME=ORI_211, SYSTEM=RECTANGULAR
33.62901614, -93.46540192, -105.03943349, 34.15544798, -93.35156940, -103.73179757
3, 0.
*SHELL SECTION, ELSET=ELEM_211, COMPOSITE, ORIENTATION=ORI_211
1.26439106, 3, CFRP, 0.
** SOURCE_TET=2375
*ELSET, ELSET=ELEM_212
212
*ORIENTATION, NAME=ORI_212, SYSTEM=RECTANGULAR
33.34729964, -92.59317310, -118.58556184, 33.86141101, -92.51683939, -117.27031940
3, 0.
*SHELL SECTION, ELSET=ELEM_212, COMPOSITE, ORIENTATION=ORI_212
1.26531172, 3, CFRP, 0.
** SOURCE_TET=2351
*ELSET, ELSET=ELEM_213
213
*ORIENTATION, NAME=ORI_213, SYSTEM=RECTANGULAR
20.58889929, -97.26280204, -97.19187158, 21.12373784, -97.08615156, -95.89466599
3, 0.
*SHELL SECTION, ELSET=ELEM_213, COMPOSITE, ORIENTATION=ORI_213
1.26357532, 3, CFRP, 0.
** SOURCE_TET=2199
*ELSET, ELSET=ELEM_214
214
*ORIENTATION, NAME=ORI_214, SYSTEM=RECTANGULAR
19.80758980, -95.47961724, -125.73830007, 20.32141841, -95.58638223, -124.42506689
3, 0.
*SHELL SECTION, ELSET=ELEM_214, COMPOSITE, ORIENTATION=ORI_214
1.26711416, 3, CFRP, 0.
** SOURCE_TET=3166
*ELSET, ELSET=ELEM_215
215
*ORIENTATION, NAME=ORI_215, SYSTEM=RECTANGULAR
57.60322568, -80.93806694, -103.06686490, 58.07280520, -80.66981728, -101.76013723
3, 0.
*SHELL SECTION, ELSET=ELEM_215, COMPOSITE, ORIENTATION=ORI_215
1.26426911, 3, CFRP, 0.
** SOURCE_TET=2745
*ELSET, ELSET=ELEM_216
216
*ORIENTATION, NAME=ORI_216, SYSTEM=RECTANGULAR
57.74361405, -79.68946895, -118.58292510, 58.21990674, -79.47796406, -117.26823466
3, 0.
*SHELL SECTION, ELSET=ELEM_216, COMPOSITE, ORIENTATION=ORI_216
1.26531148, 3, CFRP, 0.
** SOURCE_TET=4606
*ELSET, ELSET=ELEM_217
217
*ORIENTATION, NAME=ORI_217, SYSTEM=RECTANGULAR
46.06626487, -88.10959211, -97.19318351, 46.54388000, -87.80243225, -95.89798599
3, 0.
*SHELL SECTION, ELSET=ELEM_217, COMPOSITE, ORIENTATION=ORI_217
1.26342893, 3, CFRP, 0.
** SOURCE_TET=2350
*ELSET, ELSET=ELEM_218
218
*ORIENTATION, NAME=ORI_218, SYSTEM=RECTANGULAR
45.88054546, -85.85197583, -126.23804354, 46.40549976, -85.81427304, -124.92541203
3, 0.
*SHELL SECTION, ELSET=ELEM_218, COMPOSITE, ORIENTATION=ORI_218
1.26728618, 3, CFRP, 0.
** SOURCE_TET=4744
*ELSET, ELSET=ELEM_219
219
*ORIENTATION, NAME=ORI_219, SYSTEM=RECTANGULAR
77.18905760, -62.52132779, -104.67847019, 77.57712095, -62.14722428, -103.37100952
3, 0.
*SHELL SECTION, ELSET=ELEM_219, COMPOSITE, ORIENTATION=ORI_219
1.26436877, 3, CFRP, 0.
** SOURCE_TET=3830
*ELSET, ELSET=ELEM_220
220
*ORIENTATION, NAME=ORI_220, SYSTEM=RECTANGULAR
77.21328400, -61.36427546, -117.69202254, 77.59641319, -61.01452670, -116.37639044
3, 0.
*SHELL SECTION, ELSET=ELEM_220, COMPOSITE, ORIENTATION=ORI_220
1.26522875, 3, CFRP, 0.
** SOURCE_TET=6020
*ELSET, ELSET=ELEM_221
221
*ORIENTATION, NAME=ORI_221, SYSTEM=RECTANGULAR
68.01514530, -72.54128716, -96.83212232, 68.38878424, -72.11312367, -95.53710495
3, 0.
*SHELL SECTION, ELSET=ELEM_221, COMPOSITE, ORIENTATION=ORI_221
1.26340747, 3, CFRP, 0.
** SOURCE_TET=4547
*ELSET, ELSET=ELEM_222
222
*ORIENTATION, NAME=ORI_222, SYSTEM=RECTANGULAR
68.09745630, -70.02241232, -125.34504399, 68.58284185, -69.82896218, -124.03089867
3, 0.
*SHELL SECTION, ELSET=ELEM_222, COMPOSITE, ORIENTATION=ORI_222
1.26718223, 3, CFRP, 0.
** SOURCE_TET=3979
*ELSET, ELSET=ELEM_223
223
*ORIENTATION, NAME=ORI_223, SYSTEM=RECTANGULAR
90.85227676, -40.16348441, -102.24756777, 91.10813343, -39.68580998, -100.94128889
3, 0.
*SHELL SECTION, ELSET=ELEM_223, COMPOSITE, ORIENTATION=ORI_223
1.26421833, 3, CFRP, 0.
** SOURCE_TET=4288
*ELSET, ELSET=ELEM_224
224
*ORIENTATION, NAME=ORI_224, SYSTEM=RECTANGULAR
90.38882113, -38.82139297, -118.74885007, 90.68851602, -38.39405508, -117.43448128
3, 0.
*SHELL SECTION, ELSET=ELEM_224, COMPOSITE, ORIENTATION=ORI_224
1.26532805, 3, CFRP, 0.
** SOURCE_TET=5602
*ELSET, ELSET=ELEM_225
225
*ORIENTATION, NAME=ORI_225, SYSTEM=RECTANGULAR
84.60224993, -52.41484803, -96.01287348, 84.87460731, -51.91570217, -94.71800867
3, 0.
*SHELL SECTION, ELSET=ELEM_225, COMPOSITE, ORIENTATION=ORI_225
1.26337314, 3, CFRP, 0.
** SOURCE_TET=4395
*ELSET, ELSET=ELEM_226
226
*ORIENTATION, NAME=ORI_226, SYSTEM=RECTANGULAR
84.06394474, -49.82584552, -125.51200319, 84.47276890, -49.50265576, -124.19731266
3, 0.
*SHELL SECTION, ELSET=ELEM_226, COMPOSITE, ORIENTATION=ORI_226
1.26700103, 3, CFRP, 0.
** SOURCE_TET=7454
*ELSET, ELSET=ELEM_227
227
*ORIENTATION, NAME=ORI_227, SYSTEM=RECTANGULAR
94.87707197, -30.29302107, -94.98041738, 95.03861607, -29.74854562, -93.68525330
3, 0.
*SHELL SECTION, ELSET=ELEM_227, COMPOSITE, ORIENTATION=ORI_227
1.26336825, 3, CFRP, 0.
** SOURCE_TET=6599
*ELSET, ELSET=ELEM_228
228
*ORIENTATION, NAME=ORI_228, SYSTEM=RECTANGULAR
93.94351025, -28.13571670, -124.75258421, 94.26193016, -27.71357154, -123.44094317
3, 0.
*SHELL SECTION, ELSET=ELEM_228, COMPOSITE, ORIENTATION=ORI_228
1.26597655, 3, CFRP, 0.
** SOURCE_TET=4654
*ELSET, ELSET=ELEM_229
229
*ORIENTATION, NAME=ORI_229, SYSTEM=RECTANGULAR
91.37603466, 7.01391171, 147.37272242, 90.84986145, 7.62575287, 148.53409753
3, 0.
*SHELL SECTION, ELSET=ELEM_229, COMPOSITE, ORIENTATION=ORI_229
1.26399767, 3, CFRP, 0.
** SOURCE_TET=5230
*ELSET, ELSET=ELEM_230
230
*ORIENTATION, NAME=ORI_230, SYSTEM=RECTANGULAR
91.34959580, -5.10391088, 148.09918812, 90.88274449, -4.44309336, 149.25908900
3, 0.
*SHELL SECTION, ELSET=ELEM_230, COMPOSITE, ORIENTATION=ORI_230
1.26415026, 3, CFRP, 0.
** SOURCE_TET=6891
*ELSET, ELSET=ELEM_231
231
*ORIENTATION, NAME=ORI_231, SYSTEM=RECTANGULAR
94.60663110, 13.68372484, 136.48630777, 94.16586738, 14.27398473, 137.69350312
3, 0.
*SHELL SECTION, ELSET=ELEM_231, COMPOSITE, ORIENTATION=ORI_231
1.26174498, 3, CFRP, 0.
** SOURCE_TET=6776
*ELSET, ELSET=ELEM_232
232
*ORIENTATION, NAME=ORI_232, SYSTEM=RECTANGULAR
94.36996803, -11.89825168, 138.42187724, 94.07702264, -11.19883316, 139.61560951
3, 0.
*SHELL SECTION, ELSET=ELEM_232, COMPOSITE, ORIENTATION=ORI_232
1.26178443, 3, CFRP, 0.
** SOURCE_TET=5544
*ELSET, ELSET=ELEM_233
233
*ORIENTATION, NAME=ORI_233, SYSTEM=RECTANGULAR
79.28111559, 6.39585875, 169.22161138, 78.46189091, 6.90679783, 170.25496135
3, 0.
*SHELL SECTION, ELSET=ELEM_233, COMPOSITE, ORIENTATION=ORI_233
1.27606177, 3, CFRP, 0.
** SOURCE_TET=5133
*ELSET, ELSET=ELEM_234
234
*ORIENTATION, NAME=ORI_234, SYSTEM=RECTANGULAR
79.67424555, -5.84355694, 168.70251858, 78.92647418, -5.23942698, 169.73975769
3, 0.
*SHELL SECTION, ELSET=ELEM_234, COMPOSITE, ORIENTATION=ORI_234
1.27574229, 3, CFRP, 0.
** SOURCE_TET=4161
*ELSET, ELSET=ELEM_235
235
*ORIENTATION, NAME=ORI_235, SYSTEM=RECTANGULAR
85.35108323, 13.08573033, 158.56039028, 84.63492390, 13.57883370, 159.67572202
3, 0.
*SHELL SECTION, ELSET=ELEM_235, COMPOSITE, ORIENTATION=ORI_235
1.26889110, 3, CFRP, 0.
** SOURCE_TET=6298
*ELSET, ELSET=ELEM_236
236
*ORIENTATION, NAME=ORI_236, SYSTEM=RECTANGULAR
85.75315508, -11.31509870, 158.76885106, 85.20217308, -10.62054259, 159.87067258
3, 0.
*SHELL SECTION, ELSET=ELEM_236, COMPOSITE, ORIENTATION=ORI_236
1.26874673, 3, CFRP, 0.
** SOURCE_TET=6938
*ELSET, ELSET=ELEM_237
237
*ORIENTATION, NAME=ORI_237, SYSTEM=RECTANGULAR
65.21251711, 4.05676103, 185.19446564, 64.18735111, 4.48958711, 186.06721775
3, 0.
*SHELL SECTION, ELSET=ELEM_237, COMPOSITE, ORIENTATION=ORI_237
1.29617500, 3, CFRP, 0.
** SOURCE_TET=6908
*ELSET, ELSET=ELEM_238
238
*ORIENTATION, NAME=ORI_238, SYSTEM=RECTANGULAR
65.00735973, -3.47716758, 185.34884260, 64.02109365, -2.95737105, 186.21895225
3, 0.
*SHELL SECTION, ELSET=ELEM_238, COMPOSITE, ORIENTATION=ORI_238
1.29643953, 3, CFRP, 0.
** SOURCE_TET=4777
*ELSET, ELSET=ELEM_239
239
*ORIENTATION, NAME=ORI_239, SYSTEM=RECTANGULAR
74.02674865, 10.84738300, 175.61848541, 73.14825582, 11.23479345, 176.65683192
3, 0.
*SHELL SECTION, ELSET=ELEM_239, COMPOSITE, ORIENTATION=ORI_239
1.28244507, 3, CFRP, 0.
** SOURCE_TET=4123
*ELSET, ELSET=ELEM_240
240
*ORIENTATION, NAME=ORI_240, SYSTEM=RECTANGULAR
74.68496631, -10.60219992, 174.75701839, 73.94630535, -9.94175774, 175.76607543
3, 0.
*SHELL SECTION, ELSET=ELEM_240, COMPOSITE, ORIENTATION=ORI_240
1.28184474, 3, CFRP, 0.
** SOURCE_TET=7429
*ELSET, ELSET=ELEM_241
241
*ORIENTATION, NAME=ORI_241, SYSTEM=RECTANGULAR
69.19351849, 8.47038297, 181.33113926, 68.18319967, 8.83362842, 182.25163294
3, 0.
*SHELL SECTION, ELSET=ELEM_241, COMPOSITE, ORIENTATION=ORI_241
1.29076147, 3, CFRP, 0.
** SOURCE_TET=6324
*ELSET, ELSET=ELEM_242
242
*ORIENTATION, NAME=ORI_242, SYSTEM=RECTANGULAR
69.27907330, -8.26840660, 181.17007015, 68.38646231, -7.64629873, 182.07352322
3, 0.
*SHELL SECTION, ELSET=ELEM_242, COMPOSITE, ORIENTATION=ORI_242
1.29083169, 3, CFRP, 0.
** SOURCE_TET=6571
*ELSET, ELSET=ELEM_243
243
*ORIENTATION, NAME=ORI_243, SYSTEM=RECTANGULAR
53.79972459, -2.65874386, 193.98225078, 52.67548768, -2.19056481, 194.70120818
3, 0.
*SHELL SECTION, ELSET=ELEM_243, COMPOSITE, ORIENTATION=ORI_243
1.32056725, 3, CFRP, 0.
** SOURCE_TET=6644
*ELSET, ELSET=ELEM_244
244
*ORIENTATION, NAME=ORI_244, SYSTEM=RECTANGULAR
53.71894141, 3.66050254, 193.99717302, 52.55674264, 4.02667490, 194.71495559
3, 0.
*SHELL SECTION, ELSET=ELEM_244, COMPOSITE, ORIENTATION=ORI_244
1.32062900, 3, CFRP, 0.
** SOURCE_TET=6775
*ELSET, ELSET=ELEM_245
245
*ORIENTATION, NAME=ORI_245, SYSTEM=RECTANGULAR
58.84799838, -6.61650940, 190.26749916, 57.83201423, -6.03207078, 191.05883203
3, 0.
*SHELL SECTION, ELSET=ELEM_245, COMPOSITE, ORIENTATION=ORI_245
1.30875111, 3, CFRP, 0.
** SOURCE_TET=6162
*ELSET, ELSET=ELEM_246
246
*ORIENTATION, NAME=ORI_246, SYSTEM=RECTANGULAR
58.93459797, 7.30033560, 190.13103198, 57.80480841, 7.59997028, 190.92714417
3, 0.
*SHELL SECTION, ELSET=ELEM_246, COMPOSITE, ORIENTATION=ORI_246
1.30762911, 3, CFRP, 0.
** SOURCE_TET=6603
*ELSET, ELSET=ELEM_247
247
*ORIENTATION, NAME=ORI_247, SYSTEM=RECTANGULAR
44.29653356, -1.82573023, 199.50153561, 43.08544418, -1.40234345, 200.09651978
3, 0.
*SHELL SECTION, ELSET=ELEM_247, COMPOSITE, ORIENTATION=ORI_247
1.35049260, 3, CFRP, 0.
** SOURCE_TET=6590
*ELSET, ELSET=ELEM_248
248
*ORIENTATION, NAME=ORI_248, SYSTEM=RECTANGULAR
44.25647782, 2.81372701, 199.50012567, 43.01502066, 3.13937837, 200.09404091
3, 0.
*SHELL SECTION, ELSET=ELEM_248, COMPOSITE, ORIENTATION=ORI_248
1.35049260, 3, CFRP, 0.
** SOURCE_TET=3890
*ELSET, ELSET=ELEM_249
249
*ORIENTATION, NAME=ORI_249, SYSTEM=RECTANGULAR
48.86358313, -5.00689922, 196.89764187, 47.74429678, -4.45442773, 197.56245261
3, 0.
*SHELL SECTION, ELSET=ELEM_249, COMPOSITE, ORIENTATION=ORI_249
1.33342636, 3, CFRP, 0.
** SOURCE_TET=4551
*ELSET, ELSET=ELEM_250
250
*ORIENTATION, NAME=ORI_250, SYSTEM=RECTANGULAR
48.69900143, 6.02883879, 196.92001905, 47.47561935, 6.26231131, 197.58996448
3, 0.
*SHELL SECTION, ELSET=ELEM_250, COMPOSITE, ORIENTATION=ORI_250
1.33349204, 3, CFRP, 0.
** SOURCE_TET=2608
*ELSET, ELSET=ELEM_251
251
*ORIENTATION, NAME=ORI_251, SYSTEM=RECTANGULAR
37.13336706, -1.12459703, 202.78026482, 35.87970079, -0.69512868, 203.27410470
3, 0.
*SHELL SECTION, ELSET=ELEM_251, COMPOSITE, ORIENTATION=ORI_251
1.38523340, 3, CFRP, 0.
** SOURCE_TET=2206
*ELSET, ELSET=ELEM_252
252
*ORIENTATION, NAME=ORI_252, SYSTEM=RECTANGULAR
37.24436427, 2.13791167, 202.72284901, 35.95071975, 2.41429075, 203.22294746
3, 0.
*SHELL SECTION, ELSET=ELEM_252, COMPOSITE, ORIENTATION=ORI_252
1.38154423, 3, CFRP, 0.
** SOURCE_TET=3045
*ELSET, ELSET=ELEM_253
253
*ORIENTATION, NAME=ORI_253, SYSTEM=RECTANGULAR
40.57015759, -3.45295787, 201.23449762, 39.36441749, -2.96515739, 201.78969263
3, 0.
*SHELL SECTION, ELSET=ELEM_253, COMPOSITE, ORIENTATION=ORI_253
1.37107813, 3, CFRP, 0.
** SOURCE_TET=3285
*ELSET, ELSET=ELEM_254
254
*ORIENTATION, NAME=ORI_254, SYSTEM=RECTANGULAR
40.63702854, 4.44877264, 201.16531096, 39.36020701, 4.68668812, 201.72488492
3, 0.
*SHELL SECTION, ELSET=ELEM_254, COMPOSITE, ORIENTATION=ORI_254
1.36802220, 3, CFRP, 0.
** SOURCE_TET=3717
*ELSET, ELSET=ELEM_255
255
*ORIENTATION, NAME=ORI_255, SYSTEM=RECTANGULAR
31.74297763, -0.75389439, 204.79306702, 30.44369235, -0.39304660, 205.21926726
3, 0.
*SHELL SECTION, ELSET=ELEM_255, COMPOSITE, ORIENTATION=ORI_255
1.41909873, 3, CFRP, 0.
** SOURCE_TET=3913
*ELSET, ELSET=ELEM_256
256
*ORIENTATION, NAME=ORI_256, SYSTEM=RECTANGULAR
31.75022412, 1.82852741, 204.77720175, 30.43065069, 2.10780960, 205.20232222
3, 0.
*SHELL SECTION, ELSET=ELEM_256, COMPOSITE, ORIENTATION=ORI_256
1.41886067, 3, CFRP, 0.
** SOURCE_TET=2408
*ELSET, ELSET=ELEM_257
257
*ORIENTATION, NAME=ORI_257, SYSTEM=RECTANGULAR
34.36364753, -2.40398773, 203.83008030, 33.11129743, -1.94153660, 204.29672597
3, 0.
*SHELL SECTION, ELSET=ELEM_257, COMPOSITE, ORIENTATION=ORI_257
1.39715135, 3, CFRP, 0.
** SOURCE_TET=1324
*ELSET, ELSET=ELEM_258
258
*ORIENTATION, NAME=ORI_258, SYSTEM=RECTANGULAR
34.46830897, 3.45626171, 203.75076390, 33.15090056, 3.65820499, 204.22368460
3, 0.
*SHELL SECTION, ELSET=ELEM_258, COMPOSITE, ORIENTATION=ORI_258
1.39671028, 3, CFRP, 0.
** SOURCE_TET=1693
*ELSET, ELSET=ELEM_259
259
*ORIENTATION, NAME=ORI_259, SYSTEM=RECTANGULAR
27.51743644, 1.87809580, 206.09512628, 26.17135188, 2.10381127, 206.46540842
3, 0.
*SHELL SECTION, ELSET=ELEM_259, COMPOSITE, ORIENTATION=ORI_259
1.46263111, 3, CFRP, 0.
** SOURCE_TET=2566
*ELSET, ELSET=ELEM_260
260
*ORIENTATION, NAME=ORI_260, SYSTEM=RECTANGULAR
27.66624325, -0.64361479, 206.07453360, 26.35280232, -0.27141589, 206.44377729
3, 0.
*SHELL SECTION, ELSET=ELEM_260, COMPOSITE, ORIENTATION=ORI_260
1.45806038, 3, CFRP, 0.
** SOURCE_TET=1159
*ELSET, ELSET=ELEM_261
261
*ORIENTATION, NAME=ORI_261, SYSTEM=RECTANGULAR
29.70902736, -1.93048070, 205.43742911, 28.41947842, -1.51245243, 205.84031356
3, 0.
*SHELL SECTION, ELSET=ELEM_261, COMPOSITE, ORIENTATION=ORI_261
1.44257534, 3, CFRP, 0.
** SOURCE_TET=672
*ELSET, ELSET=ELEM_262
262
*ORIENTATION, NAME=ORI_262, SYSTEM=RECTANGULAR
29.56122617, 3.18231787, 205.44601673, 28.21654136, 3.35667543, 205.84779057
3, 0.
*SHELL SECTION, ELSET=ELEM_262, COMPOSITE, ORIENTATION=ORI_262
1.43443036, 3, CFRP, 0.
** SOURCE_TET=1920
*ELSET, ELSET=ELEM_263
263
*ORIENTATION, NAME=ORI_263, SYSTEM=RECTANGULAR
23.84497420, 1.60152299, 207.08509632, 22.48472357, 1.81845751, 207.40549864
3, 0.
*SHELL SECTION, ELSET=ELEM_263, COMPOSITE, ORIENTATION=ORI_263
1.49578536, 3, CFRP, 0.
** SOURCE_TET=1593
*ELSET, ELSET=ELEM_264
264
*ORIENTATION, NAME=ORI_264, SYSTEM=RECTANGULAR
23.88042282, -0.55474418, 207.08601259, 22.54762687, -0.20623095, 207.40568977
3, 0.
*SHELL SECTION, ELSET=ELEM_264, COMPOSITE, ORIENTATION=ORI_264
1.50687027, 3, CFRP, 0.
** SOURCE_TET=2612
*ELSET, ELSET=ELEM_265
265
*ORIENTATION, NAME=ORI_265, SYSTEM=RECTANGULAR
25.65434300, 2.91887542, 206.58563096, 24.29503518, 3.09277934, 206.93497274
3, 0.
*SHELL SECTION, ELSET=ELEM_265, COMPOSITE, ORIENTATION=ORI_265
1.47758412, 3, CFRP, 0.
** SOURCE_TET=2719
*ELSET, ELSET=ELEM_266
266
*ORIENTATION, NAME=ORI_266, SYSTEM=RECTANGULAR
25.82349452, -1.73573068, 206.57008034, 24.51649311, -1.32283891, 206.91831545
3, 0.
*SHELL SECTION, ELSET=ELEM_266, COMPOSITE, ORIENTATION=ORI_266
1.47263396, 3, CFRP, 0.
** SOURCE_TET=2037
*ELSET, ELSET=ELEM_267
267
*ORIENTATION, NAME=ORI_267, SYSTEM=RECTANGULAR
20.20350948, -0.58235586, 207.91677708, 18.85952792, -0.23412773, 208.18594379
3, 0.
*SHELL SECTION, ELSET=ELEM_267, COMPOSITE, ORIENTATION=ORI_267
1.55220032, 3, CFRP, 0.
** SOURCE_TET=1774
*ELSET, ELSET=ELEM_268
268
*ORIENTATION, NAME=ORI_268, SYSTEM=RECTANGULAR
20.42319550, 1.79898416, 207.85457901, 19.04522555, 1.96782166, 208.12419488
3, 0.
*SHELL SECTION, ELSET=ELEM_268, COMPOSITE, ORIENTATION=ORI_268
1.55837452, 3, CFRP, 0.
** SOURCE_TET=2501
*ELSET, ELSET=ELEM_269
269
*ORIENTATION, NAME=ORI_269, SYSTEM=RECTANGULAR
22.05270432, -1.68088109, 207.50514666, 20.72868344, -1.28140313, 207.80075800
3, 0.
*SHELL SECTION, ELSET=ELEM_269, COMPOSITE, ORIENTATION=ORI_269
1.52723908, 3, CFRP, 0.
** SOURCE_TET=960
*ELSET, ELSET=ELEM_270
270
*ORIENTATION, NAME=ORI_270, SYSTEM=RECTANGULAR
22.26316899, 2.81886619, 207.43680507, 20.88931208, 2.97214783, 207.73517049
3, 0.
*SHELL SECTION, ELSET=ELEM_270, COMPOSITE, ORIENTATION=ORI_270
1.51124048, 3, CFRP, 0.
** SOURCE_TET=2574
*ELSET, ELSET=ELEM_271
271
*ORIENTATION, NAME=ORI_271, SYSTEM=RECTANGULAR
16.73257755, 1.64213412, 208.56001831, 15.34269570, 1.78537869, 208.77844322
3, 0.
*SHELL SECTION, ELSET=ELEM_271, COMPOSITE, ORIENTATION=ORI_271
1.59089482, 3, CFRP, 0.
** SOURCE_TET=1790
*ELSET, ELSET=ELEM_272
272
*ORIENTATION, NAME=ORI_272, SYSTEM=RECTANGULAR
16.67519194, -0.48749342, 208.58279038, 15.32790953, -0.11620823, 208.79953308
3, 0.
*SHELL SECTION, ELSET=ELEM_272, COMPOSITE, ORIENTATION=ORI_272
1.59106982, 3, CFRP, 0.
** SOURCE_TET=7148
*ELSET, ELSET=ELEM_273
273
*ORIENTATION, NAME=ORI_273, SYSTEM=RECTANGULAR
18.55823532, -1.62067002, 208.23212675, 17.23498936, -1.18839631, 208.48144500
3, 0.
*SHELL SECTION, ELSET=ELEM_273, COMPOSITE, ORIENTATION=ORI_273
1.58978939, 3, CFRP, 0.
** SOURCE_TET=2529
*ELSET, ELSET=ELEM_274
274
*ORIENTATION, NAME=ORI_274, SYSTEM=RECTANGULAR
18.86628585, 2.84685176, 208.14070014, 17.47996380, 2.94703481, 208.40161112
3, 0.
*SHELL SECTION, ELSET=ELEM_274, COMPOSITE, ORIENTATION=ORI_274
1.58025432, 3, CFRP, 0.
** SOURCE_TET=3127
*ELSET, ELSET=ELEM_275
275
*ORIENTATION, NAME=ORI_275, SYSTEM=RECTANGULAR
14.90897159, 2.52036777, 208.82375809, 13.51091504, 2.58605794, 209.02654534
3, 0.
*SHELL SECTION, ELSET=ELEM_275, COMPOSITE, ORIENTATION=ORI_275
1.59199858, 3, CFRP, 0.
** SOURCE_TET=2870
*ELSET, ELSET=ELEM_276
276
*ORIENTATION, NAME=ORI_276, SYSTEM=RECTANGULAR
14.91276272, -1.36807377, 208.85394669, 13.58280659, -0.93106223, 209.05453979
3, 0.
*SHELL SECTION, ELSET=ELEM_276, COMPOSITE, ORIENTATION=ORI_276
1.59217513, 3, CFRP, 0.
** SOURCE_TET=3529
*ELSET, ELSET=ELEM_277
277
*ORIENTATION, NAME=ORI_277, SYSTEM=RECTANGULAR
11.28872419, 5.40253693, 209.18432213, 9.92467864, 5.07212948, 209.35813425
3, 0.
*SHELL SECTION, ELSET=ELEM_277, COMPOSITE, ORIENTATION=ORI_277
1.59467340, 3, CFRP, 0.
** SOURCE_TET=7219
*ELSET, ELSET=ELEM_278
278
*ORIENTATION, NAME=ORI_278, SYSTEM=RECTANGULAR
8.75493000, 9.53521683, 209.12505950, 7.57728600, 8.77187245, 209.29958741
3, 0.
*SHELL SECTION, ELSET=ELEM_278, COMPOSITE, ORIENTATION=ORI_278
1.59436905, 3, CFRP, 0.
** SOURCE_TET=1611
*ELSET, ELSET=ELEM_279
279
*ORIENTATION, NAME=ORI_279, SYSTEM=RECTANGULAR
5.72503918, 12.85632558, 208.95967950, 4.92466775, 11.70447765, 209.14037794
3, 0.
*SHELL SECTION, ELSET=ELEM_279, COMPOSITE, ORIENTATION=ORI_279
1.59248126, 3, CFRP, 0.
** SOURCE_TET=1305
*ELSET, ELSET=ELEM_280
280
*ORIENTATION, NAME=ORI_280, SYSTEM=RECTANGULAR
3.95563234, 13.53233280, 208.97296599, 3.27329807, 12.30766164, 209.15897806
3, 0.
*SHELL SECTION, ELSET=ELEM_280, COMPOSITE, ORIENTATION=ORI_280
1.59246159, 3, CFRP, 0.
** SOURCE_TET=1559
*ELSET, ELSET=ELEM_281
281
*ORIENTATION, NAME=ORI_281, SYSTEM=RECTANGULAR
-0.59240236, 12.88882520, 209.13113381, -0.77809163, 11.49811338, 209.30844749
3, 0.
*SHELL SECTION, ELSET=ELEM_281, COMPOSITE, ORIENTATION=ORI_281
1.59437919, 3, CFRP, 0.
** SOURCE_TET=2086
*ELSET, ELSET=ELEM_282
282
*ORIENTATION, NAME=ORI_282, SYSTEM=RECTANGULAR
-5.00071571, 12.48754985, 209.06321964, -4.70610024, 11.11539759, 209.23757526
3, 0.
*SHELL SECTION, ELSET=ELEM_282, COMPOSITE, ORIENTATION=ORI_282
1.59404504, 3, CFRP, 0.
** SOURCE_TET=1842
*ELSET, ELSET=ELEM_283
283
*ORIENTATION, NAME=ORI_283, SYSTEM=RECTANGULAR
-6.63570402, 11.74038046, 209.07057380, -6.19618251, 10.40781667, 209.24691036
3, 0.
*SHELL SECTION, ELSET=ELEM_283, COMPOSITE, ORIENTATION=ORI_283
1.59399211, 3, CFRP, 0.
** SOURCE_TET=2060
*ELSET, ELSET=ELEM_284
284
*ORIENTATION, NAME=ORI_284, SYSTEM=RECTANGULAR
-10.79735680, 8.66449734, 209.01177913, -9.89196526, 7.59390852, 209.19645653
3, 0.
*SHELL SECTION, ELSET=ELEM_284, COMPOSITE, ORIENTATION=ORI_284
1.59375262, 3, CFRP, 0.
** SOURCE_TET=1849
*ELSET, ELSET=ELEM_285
285
*ORIENTATION, NAME=ORI_285, SYSTEM=RECTANGULAR
-9.57151506, 9.97736490, 208.99693415, -8.78273180, 8.81743850, 209.17691118
3, 0.
*SHELL SECTION, ELSET=ELEM_285, COMPOSITE, ORIENTATION=ORI_285
1.59379721, 3, CFRP, 0.
** SOURCE_TET=1546
*ELSET, ELSET=ELEM_286
286
*ORIENTATION, NAME=ORI_286, SYSTEM=RECTANGULAR
-12.59805332, 5.94303760, 208.97943383, -11.50611469, 5.06198108, 209.15666093
3, 0.
*SHELL SECTION, ELSET=ELEM_286, COMPOSITE, ORIENTATION=ORI_286
1.59370732, 3, CFRP, 0.
** SOURCE_TET=2121
*ELSET, ELSET=ELEM_287
287
*ORIENTATION, NAME=ORI_287, SYSTEM=RECTANGULAR
-13.26805639, 4.54963753, 208.98872962, -12.10230518, 3.77043016, 209.17274048
3, 0.
*SHELL SECTION, ELSET=ELEM_287, COMPOSITE, ORIENTATION=ORI_287
1.59368443, 3, CFRP, 0.
** SOURCE_TET=2461
*ELSET, ELSET=ELEM_288
288
*ORIENTATION, NAME=ORI_288, SYSTEM=RECTANGULAR
-13.28385392, 0.62062378, 209.08976887, -11.93630770, 0.22638455, 209.25916375
3, 0.
*SHELL SECTION, ELSET=ELEM_288, COMPOSITE, ORIENTATION=ORI_288
1.59413123, 3, CFRP, 0.
** SOURCE_TET=2167
*ELSET, ELSET=ELEM_289
289
*ORIENTATION, NAME=ORI_289, SYSTEM=RECTANGULAR
-13.12524284, -1.97377006, 209.08958230, -11.72312327, -2.04593175, 209.25944512
3, 0.
*SHELL SECTION, ELSET=ELEM_289, COMPOSITE, ORIENTATION=ORI_289
1.59411335, 3, CFRP, 0.
** SOURCE_TET=2390
*ELSET, ELSET=ELEM_290
290
*ORIENTATION, NAME=ORI_290, SYSTEM=RECTANGULAR
-11.75058133, -6.00837404, 209.09969899, -10.40431373, -5.61085520, 209.27157786
3, 0.
*SHELL SECTION, ELSET=ELEM_290, COMPOSITE, ORIENTATION=ORI_290
1.59416997, 3, CFRP, 0.
** SOURCE_TET=2062
*ELSET, ELSET=ELEM_291
291
*ORIENTATION, NAME=ORI_291, SYSTEM=RECTANGULAR
-8.81987567, -9.57465971, 209.11337553, -7.70127130, -8.72808094, 209.29234097
3, 0.
*SHELL SECTION, ELSET=ELEM_291, COMPOSITE, ORIENTATION=ORI_291
1.59432673, 3, CFRP, 0.
** SOURCE_TET=2733
*ELSET, ELSET=ELEM_292
292
*ORIENTATION, NAME=ORI_292, SYSTEM=RECTANGULAR
-3.69290566, -12.84249238, 209.08712251, -3.05450173, -11.59256436, 209.26067475
3, 0.
*SHELL SECTION, ELSET=ELEM_292, COMPOSITE, ORIENTATION=ORI_292
1.59408879, 3, CFRP, 0.
** SOURCE_TET=2645
*ELSET, ELSET=ELEM_293
293
*ORIENTATION, NAME=ORI_293, SYSTEM=RECTANGULAR
-5.46006789, -12.22794129, 209.07688040, -4.59519026, -11.12188179, 209.24605213
3, 0.
*SHELL SECTION, ELSET=ELEM_293, COMPOSITE, ORIENTATION=ORI_293
1.59408569, 3, CFRP, 0.
** SOURCE_TET=2123
*ELSET, ELSET=ELEM_294
294
*ORIENTATION, NAME=ORI_294, SYSTEM=RECTANGULAR
0.52026623, -12.95864847, 209.12261906, 0.82241285, -11.58809554, 209.29666531
3, 0.
*SHELL SECTION, ELSET=ELEM_294, COMPOSITE, ORIENTATION=ORI_294
1.59439266, 3, CFRP, 0.
** SOURCE_TET=1671
*ELSET, ELSET=ELEM_295
295
*ORIENTATION, NAME=ORI_295, SYSTEM=RECTANGULAR
6.78643295, -12.33688568, 208.97593358, 6.35913711, -11.00171318, 209.16230057
3, 0.
*SHELL SECTION, ELSET=ELEM_295, COMPOSITE, ORIENTATION=ORI_295
1.59360111, 3, CFRP, 0.
** SOURCE_TET=2254
*ELSET, ELSET=ELEM_296
296
*ORIENTATION, NAME=ORI_296, SYSTEM=RECTANGULAR
5.02802635, -13.14446805, 208.95938224, 4.75162657, -11.76950771, 209.14128122
3, 0.
*SHELL SECTION, ELSET=ELEM_296, COMPOSITE, ORIENTATION=ORI_296
1.59364104, 3, CFRP, 0.
** SOURCE_TET=2422
*ELSET, ELSET=ELEM_297
297
*ORIENTATION, NAME=ORI_297, SYSTEM=RECTANGULAR
9.52684642, -8.72783687, 209.12867624, 8.71345746, -7.58447913, 209.30511738
3, 0.
*SHELL SECTION, ELSET=ELEM_297, COMPOSITE, ORIENTATION=ORI_297
1.59343255, 3, CFRP, 0.
** SOURCE_TET=3554
*ELSET, ELSET=ELEM_298
298
*ORIENTATION, NAME=ORI_298, SYSTEM=RECTANGULAR
11.74888403, -4.34668226, 209.18328584, 10.57704536, -3.57420141, 209.35668553
3, 0.
*SHELL SECTION, ELSET=ELEM_298, COMPOSITE, ORIENTATION=ORI_298
1.59467292, 3, CFRP, 0.
** SOURCE_TET=1183
*ELSET, ELSET=ELEM_299
299
*ORIENTATION, NAME=ORI_299, SYSTEM=RECTANGULAR
15.02365825, -0.15480307, -208.84776124, 16.41993067, -0.19299504, -208.62648155
3, 0.
*SHELL SECTION, ELSET=ELEM_299, COMPOSITE, ORIENTATION=ORI_299
1.68529975, 3, CFRP, 0.
** SOURCE_TET=1772
*ELSET, ELSET=ELEM_300
300
*ORIENTATION, NAME=ORI_300, SYSTEM=RECTANGULAR
15.03284416, 1.58998964, -208.83248422, 16.41699329, 1.77800626, -208.61162014
3, 0.
*SHELL SECTION, ELSET=ELEM_300, COMPOSITE, ORIENTATION=ORI_300
1.68511510, 3, CFRP, 0.
** SOURCE_TET=2660
*ELSET, ELSET=ELEM_301
301
*ORIENTATION, NAME=ORI_301, SYSTEM=RECTANGULAR
13.61325137, -1.46029686, -209.03828427, 15.00552777, -1.61024723, -208.84059428
3, 0.
*SHELL SECTION, ELSET=ELEM_301, COMPOSITE, ORIENTATION=ORI_301
1.68671823, 3, CFRP, 0.
** SOURCE_TET=3099
*ELSET, ELSET=ELEM_302
302
*ORIENTATION, NAME=ORI_302, SYSTEM=RECTANGULAR
13.21371088, 2.38725798, -209.07671872, 14.58963405, 2.64313187, -208.87333733
3, 0.
*SHELL SECTION, ELSET=ELEM_302, COMPOSITE, ORIENTATION=ORI_302
1.68695426, 3, CFRP, 0.
** SOURCE_TET=2347
*ELSET, ELSET=ELEM_303
303
*ORIENTATION, NAME=ORI_303, SYSTEM=RECTANGULAR
18.58451530, -0.43921586, -208.23743692, 19.97196047, -0.43833053, -207.96358458
3, 0.
*SHELL SECTION, ELSET=ELEM_303, COMPOSITE, ORIENTATION=ORI_303
1.63956416, 3, CFRP, 0.
** SOURCE_TET=1737
*ELSET, ELSET=ELEM_304
304
*ORIENTATION, NAME=ORI_304, SYSTEM=RECTANGULAR
18.57534054, 1.69652369, -208.22573338, 19.94916051, 1.89120679, -207.95238894
3, 0.
*SHELL SECTION, ELSET=ELEM_304, COMPOSITE, ORIENTATION=ORI_304
1.64098680, 3, CFRP, 0.
** SOURCE_TET=906
*ELSET, ELSET=ELEM_305
305
*ORIENTATION, NAME=ORI_305, SYSTEM=RECTANGULAR
16.82177743, -1.28972668, -208.55280977, 18.21206861, -1.35078458, -208.30109092
3, 0.
*SHELL SECTION, ELSET=ELEM_305, COMPOSITE, ORIENTATION=ORI_305
1.67250156, 3, CFRP, 0.
** SOURCE_TET=1589
*ELSET, ELSET=ELEM_306
306
*ORIENTATION, NAME=ORI_306, SYSTEM=RECTANGULAR
16.87194673, 2.64537857, -208.51860859, 18.23984659, 2.89908165, -208.26467018
3, 0.
*SHELL SECTION, ELSET=ELEM_306, COMPOSITE, ORIENTATION=ORI_306
1.67118597, 3, CFRP, 0.
** SOURCE_TET=2658
*ELSET, ELSET=ELEM_307
307
*ORIENTATION, NAME=ORI_307, SYSTEM=RECTANGULAR
22.20267670, 1.65564287, -207.47271164, 23.56824355, 1.82678695, -207.14723219
3, 0.
*SHELL SECTION, ELSET=ELEM_307, COMPOSITE, ORIENTATION=ORI_307
1.56680346, 3, CFRP, 0.
** SOURCE_TET=7247
*ELSET, ELSET=ELEM_308
308
*ORIENTATION, NAME=ORI_308, SYSTEM=RECTANGULAR
22.33644746, -0.34523648, -207.45466839, 23.71049969, -0.26543003, -207.12968933
3, 0.
*SHELL SECTION, ELSET=ELEM_308, COMPOSITE, ORIENTATION=ORI_308
1.56610870, 3, CFRP, 0.
** SOURCE_TET=3194
*ELSET, ELSET=ELEM_309
309
*ORIENTATION, NAME=ORI_309, SYSTEM=RECTANGULAR
20.45900486, -1.43145005, -207.85317100, 21.84100269, -1.46942629, -207.55544664
3, 0.
*SHELL SECTION, ELSET=ELEM_309, COMPOSITE, ORIENTATION=ORI_309
1.60741401, 3, CFRP, 0.
** SOURCE_TET=2618
*ELSET, ELSET=ELEM_310
310
*ORIENTATION, NAME=ORI_310, SYSTEM=RECTANGULAR
20.31727092, 2.70741356, -207.85932225, 21.67809792, 2.95108692, -207.56137399
3, 0.
*SHELL SECTION, ELSET=ELEM_310, COMPOSITE, ORIENTATION=ORI_310
1.60979199, 3, CFRP, 0.
** SOURCE_TET=1474
*ELSET, ELSET=ELEM_311
311
*ORIENTATION, NAME=ORI_311, SYSTEM=RECTANGULAR
26.02929165, 1.72197381, -206.51696870, 27.38085186, 1.89787460, -206.13968381
3, 0.
*SHELL SECTION, ELSET=ELEM_311, COMPOSITE, ORIENTATION=ORI_311
1.52346456, 3, CFRP, 0.
** SOURCE_TET=330
*ELSET, ELSET=ELEM_312
312
*ORIENTATION, NAME=ORI_312, SYSTEM=RECTANGULAR
26.13450052, -0.56619080, -206.49969684, 27.49506045, -0.48200614, -206.12314718
3, 0.
*SHELL SECTION, ELSET=ELEM_312, COMPOSITE, ORIENTATION=ORI_312
1.52314973, 3, CFRP, 0.
** SOURCE_TET=2583
*ELSET, ELSET=ELEM_313
313
*ORIENTATION, NAME=ORI_313, SYSTEM=RECTANGULAR
24.07196479, 2.73714259, -206.99795922, 25.42401600, 2.95516907, -206.64522422
3, 0.
*SHELL SECTION, ELSET=ELEM_313, COMPOSITE, ORIENTATION=ORI_313
1.54333091, 3, CFRP, 0.
** SOURCE_TET=478
*ELSET, ELSET=ELEM_314
314
*ORIENTATION, NAME=ORI_314, SYSTEM=RECTANGULAR
24.36012204, -1.50351697, -206.95509265, 25.72682745, -1.56638555, -206.59709282
3, 0.
*SHELL SECTION, ELSET=ELEM_314, COMPOSITE, ORIENTATION=ORI_314
1.54473579, 3, CFRP, 0.
** SOURCE_TET=1444
*ELSET, ELSET=ELEM_315
315
*ORIENTATION, NAME=ORI_315, SYSTEM=RECTANGULAR
30.41450359, -0.68692158, -205.22335657, 31.75749513, -0.60188444, -204.78845150
3, 0.
*SHELL SECTION, ELSET=ELEM_315, COMPOSITE, ORIENTATION=ORI_315
1.46709037, 3, CFRP, 0.
** SOURCE_TET=1268
*ELSET, ELSET=ELEM_316
316
*ORIENTATION, NAME=ORI_316, SYSTEM=RECTANGULAR
30.12395358, 1.86374947, -205.30627119, 31.45870232, 2.03360676, -204.87084692
3, 0.
*SHELL SECTION, ELSET=ELEM_316, COMPOSITE, ORIENTATION=ORI_316
1.46890903, 3, CFRP, 0.
** SOURCE_TET=713
*ELSET, ELSET=ELEM_317
317
*ORIENTATION, NAME=ORI_317, SYSTEM=RECTANGULAR
28.42373498, -1.86726428, -205.82704163, 29.77503360, -1.87913216, -205.41008698
3, 0.
*SHELL SECTION, ELSET=ELEM_317, COMPOSITE, ORIENTATION=ORI_317
1.48773479, 3, CFRP, 0.
** SOURCE_TET=754
*ELSET, ELSET=ELEM_318
318
*ORIENTATION, NAME=ORI_318, SYSTEM=RECTANGULAR
27.98379608, 2.91789865, -205.93767938, 29.31168621, 3.18133267, -205.52864353
3, 0.
*SHELL SECTION, ELSET=ELEM_318, COMPOSITE, ORIENTATION=ORI_318
1.49505901, 3, CFRP, 0.
** SOURCE_TET=7032
*ELSET, ELSET=ELEM_319
319
*ORIENTATION, NAME=ORI_319, SYSTEM=RECTANGULAR
35.79985007, -1.00795635, -203.29866241, 37.11457676, -0.90321704, -202.78824749
3, 0.
*SHELL SECTION, ELSET=ELEM_319, COMPOSITE, ORIENTATION=ORI_319
1.42327285, 3, CFRP, 0.
** SOURCE_TET=7013
*ELSET, ELSET=ELEM_320
320
*ORIENTATION, NAME=ORI_320, SYSTEM=RECTANGULAR
35.20081104, 1.97837487, -203.52967597, 36.50655459, 2.16468312, -203.01945737
3, 0.
*SHELL SECTION, ELSET=ELEM_320, COMPOSITE, ORIENTATION=ORI_320
1.42624772, 3, CFRP, 0.
** SOURCE_TET=4460
*ELSET, ELSET=ELEM_321
321
*ORIENTATION, NAME=ORI_321, SYSTEM=RECTANGULAR
33.23388180, -2.33221132, -204.24169351, 34.56040014, -2.27694959, -203.75456391
3, 0.
*SHELL SECTION, ELSET=ELEM_321, COMPOSITE, ORIENTATION=ORI_321
1.43691289, 3, CFRP, 0.
** SOURCE_TET=879
*ELSET, ELSET=ELEM_322
322
*ORIENTATION, NAME=ORI_322, SYSTEM=RECTANGULAR
32.32358192, 3.18154745, -204.54639043, 33.63230997, 3.44254696, -204.07829840
3, 0.
*SHELL SECTION, ELSET=ELEM_322, COMPOSITE, ORIENTATION=ORI_322
1.44675553, 3, CFRP, 0.
** SOURCE_TET=4601
*ELSET, ELSET=ELEM_323
323
*ORIENTATION, NAME=ORI_323, SYSTEM=RECTANGULAR
42.82983178, -1.62151246, -200.21560364, 44.10154154, -1.54382085, -199.60182982
3, 0.
*SHELL SECTION, ELSET=ELEM_323, COMPOSITE, ORIENTATION=ORI_323
1.38219047, 3, CFRP, 0.
** SOURCE_TET=4286
*ELSET, ELSET=ELEM_324
324
*ORIENTATION, NAME=ORI_324, SYSTEM=RECTANGULAR
43.43660393, 3.33882440, -199.83489037, 44.68007909, 3.62036759, -199.22292389
3, 0.
*SHELL SECTION, ELSET=ELEM_324, COMPOSITE, ORIENTATION=ORI_324
1.37828100, 3, CFRP, 0.
** SOURCE_TET=7419
*ELSET, ELSET=ELEM_325
325
*ORIENTATION, NAME=ORI_325, SYSTEM=RECTANGULAR
39.28815556, -3.25268528, -201.82015846, 40.57955264, -3.23284952, -201.24405074
3, 0.
*SHELL SECTION, ELSET=ELEM_325, COMPOSITE, ORIENTATION=ORI_325
1.39506829, 3, CFRP, 0.
** SOURCE_TET=2424
*ELSET, ELSET=ELEM_326
326
*ORIENTATION, NAME=ORI_326, SYSTEM=RECTANGULAR
40.34375019, 6.14312806, -201.15998513, 41.58070468, 6.48883532, -200.56801378
3, 0.
*SHELL SECTION, ELSET=ELEM_326, COMPOSITE, ORIENTATION=ORI_326
1.39569318, 3, CFRP, 0.
** SOURCE_TET=2239
*ELSET, ELSET=ELEM_327
327
*ORIENTATION, NAME=ORI_327, SYSTEM=RECTANGULAR
36.92104647, 4.74602354, -202.74852438, 38.18341225, 5.06074444, -202.19410271
3, 0.
*SHELL SECTION, ELSET=ELEM_327, COMPOSITE, ORIENTATION=ORI_327
1.41134596, 3, CFRP, 0.
** SOURCE_TET=6902
*ELSET, ELSET=ELEM_328
328
*ORIENTATION, NAME=ORI_328, SYSTEM=RECTANGULAR
52.28187938, 3.71937226, -194.89690622, 53.45394589, 3.98992067, -194.15322372
3, 0.
*SHELL SECTION, ELSET=ELEM_328, COMPOSITE, ORIENTATION=ORI_328
1.34501886, 3, CFRP, 0.
** SOURCE_TET=7087
*ELSET, ELSET=ELEM_329
329
*ORIENTATION, NAME=ORI_329, SYSTEM=RECTANGULAR
52.33642443, -2.54075022, -194.89917038, 53.52860080, -2.37676016, -194.15632263
3, 0.
*SHELL SECTION, ELSET=ELEM_329, COMPOSITE, ORIENTATION=ORI_329
1.34501886, 3, CFRP, 0.
** SOURCE_TET=4950
*ELSET, ELSET=ELEM_330
330
*ORIENTATION, NAME=ORI_330, SYSTEM=RECTANGULAR
47.94873368, 6.46041019, -197.36182555, 49.12832041, 6.80500215, -196.66194590
3, 0.
*SHELL SECTION, ELSET=ELEM_330, COMPOSITE, ORIENTATION=ORI_330
1.36302853, 3, CFRP, 0.
** SOURCE_TET=6559
*ELSET, ELSET=ELEM_331
331
*ORIENTATION, NAME=ORI_331, SYSTEM=RECTANGULAR
47.39125436, -4.76389600, -197.73902959, 48.62552336, -4.72378740, -197.04984796
3, 0.
*SHELL SECTION, ELSET=ELEM_331, COMPOSITE, ORIENTATION=ORI_331
1.36628699, 3, CFRP, 0.
** SOURCE_TET=7026
*ELSET, ELSET=ELEM_332
332
*ORIENTATION, NAME=ORI_332, SYSTEM=RECTANGULAR
64.86217393, -3.38285539, -185.47520278, 65.92367207, -3.15790619, -184.56821901
3, 0.
*SHELL SECTION, ELSET=ELEM_332, COMPOSITE, ORIENTATION=ORI_332
1.31274188, 3, CFRP, 0.
** SOURCE_TET=6896
*ELSET, ELSET=ELEM_333
333
*ORIENTATION, NAME=ORI_333, SYSTEM=RECTANGULAR
63.42527861, 4.46206631, -186.65533606, 64.46237008, 4.77867631, -185.74748179
3, 0.
*SHELL SECTION, ELSET=ELEM_333, COMPOSITE, ORIENTATION=ORI_333
1.31492877, 3, CFRP, 0.
** SOURCE_TET=6462
*ELSET, ELSET=ELEM_334
334
*ORIENTATION, NAME=ORI_334, SYSTEM=RECTANGULAR
57.09579973, 7.60774751, -191.46226418, 58.19486680, 7.94659483, -190.63932186
3, 0.
*SHELL SECTION, ELSET=ELEM_334, COMPOSITE, ORIENTATION=ORI_334
1.33360255, 3, CFRP, 0.
** SOURCE_TET=5890
*ELSET, ELSET=ELEM_335
335
*ORIENTATION, NAME=ORI_335, SYSTEM=RECTANGULAR
58.63656272, -6.46679649, -190.30484110, 59.76583515, -6.38457094, -189.45750249
3, 0.
*SHELL SECTION, ELSET=ELEM_335, COMPOSITE, ORIENTATION=ORI_335
1.32592857, 3, CFRP, 0.
** SOURCE_TET=5071
*ELSET, ELSET=ELEM_336
336
*ORIENTATION, NAME=ORI_336, SYSTEM=RECTANGULAR
78.19303222, 6.47508364, -170.64391495, 79.00033776, 6.86759276, -169.55112294
3, 0.
*SHELL SECTION, ELSET=ELEM_336, COMPOSITE, ORIENTATION=ORI_336
1.28875613, 3, CFRP, 0.
** SOURCE_TET=5548
*ELSET, ELSET=ELEM_337
337
*ORIENTATION, NAME=ORI_337, SYSTEM=RECTANGULAR
78.25565392, -5.45120120, -170.64678404, 79.10514867, -5.15390473, -169.55592498
3, 0.
*SHELL SECTION, ELSET=ELEM_337, COMPOSITE, ORIENTATION=ORI_337
1.28875613, 3, CFRP, 0.
** SOURCE_TET=3845
*ELSET, ELSET=ELEM_338
338
*ORIENTATION, NAME=ORI_338, SYSTEM=RECTANGULAR
73.15379134, 11.17130845, -176.68258384, 73.97051012, 11.62162793, -175.61948328
3, 0.
*SHELL SECTION, ELSET=ELEM_338, COMPOSITE, ORIENTATION=ORI_338
1.29779851, 3, CFRP, 0.
** SOURCE_TET=5357
*ELSET, ELSET=ELEM_339
339
*ORIENTATION, NAME=ORI_339, SYSTEM=RECTANGULAR
71.60273036, -9.34693873, -178.37244822, 72.55192947, -9.17865588, -177.33770094
3, 0.
*SHELL SECTION, ELSET=ELEM_339, COMPOSITE, ORIENTATION=ORI_339
1.30000687, 3, CFRP, 0.
** SOURCE_TET=6893
*ELSET, ELSET=ELEM_340
340
*ORIENTATION, NAME=ORI_340, SYSTEM=RECTANGULAR
67.69403280, 9.15513006, -182.53377222, 68.67080325, 9.53605762, -181.58466017
3, 0.
*SHELL SECTION, ELSET=ELEM_340, COMPOSITE, ORIENTATION=ORI_340
1.30785513, 3, CFRP, 0.
** SOURCE_TET=4891
*ELSET, ELSET=ELEM_341
341
*ORIENTATION, NAME=ORI_341, SYSTEM=RECTANGULAR
90.36695695, 6.82881481, -149.88605504, 90.86339811, 7.28430270, -148.64264161
3, 0.
*SHELL SECTION, ELSET=ELEM_341, COMPOSITE, ORIENTATION=ORI_341
1.27323699, 3, CFRP, 0.
** SOURCE_TET=4757
*ELSET, ELSET=ELEM_342
342
*ORIENTATION, NAME=ORI_342, SYSTEM=RECTANGULAR
90.76691803, -5.93471648, -149.07555900, 91.31119220, -5.53305918, -147.83361012
3, 0.
*SHELL SECTION, ELSET=ELEM_342, COMPOSITE, ORIENTATION=ORI_342
1.27296996, 3, CFRP, 0.
** SOURCE_TET=3348
*ELSET, ELSET=ELEM_343
343
*ORIENTATION, NAME=ORI_343, SYSTEM=RECTANGULAR
84.14785501, 12.79957971, -160.94949030, 84.77161288, 13.28047082, -159.77489682
3, 0.
*SHELL SECTION, ELSET=ELEM_343, COMPOSITE, ORIENTATION=ORI_343
1.28203750, 3, CFRP, 0.
** SOURCE_TET=7372
*ELSET, ELSET=ELEM_344
344
*ORIENTATION, NAME=ORI_344, SYSTEM=RECTANGULAR
84.66224676, -11.83811772, -160.13462942, 85.38485433, -11.59036231, -158.94448003
3, 0.
*SHELL SECTION, ELSET=ELEM_344, COMPOSITE, ORIENTATION=ORI_344
1.28181016, 3, CFRP, 0.
** SOURCE_TET=7379
*ELSET, ELSET=ELEM_345
345
*ORIENTATION, NAME=ORI_345, SYSTEM=RECTANGULAR
93.91216957, 12.62864177, -139.11522857, 94.25742567, 13.11670626, -137.83359240
3, 0.
*SHELL SECTION, ELSET=ELEM_345, COMPOSITE, ORIENTATION=ORI_345
1.27013874, 3, CFRP, 0.
** SOURCE_TET=6647
*ELSET, ELSET=ELEM_346
346
*ORIENTATION, NAME=ORI_346, SYSTEM=RECTANGULAR
94.24233906, -12.59502419, -138.26248474, 94.67619907, -12.19853917, -136.97618574
3, 0.
*SHELL SECTION, ELSET=ELEM_346, COMPOSITE, ORIENTATION=ORI_346
1.26933205, 3, CFRP, 0.
** SOURCE_TET=2820
*ELSET, ELSET=ELEM_347
347
*ORIENTATION, NAME=ORI_347, SYSTEM=RECTANGULAR
9.84887029, 4.91758902, -209.37450876, 11.13458672, 5.47963082, -209.19832058
3, 0.
*SHELL SECTION, ELSET=ELEM_347, COMPOSITE, ORIENTATION=ORI_347
1.69123864, 3, CFRP, 0.
** SOURCE_TET=2143
*ELSET, ELSET=ELEM_348
348
*ORIENTATION, NAME=ORI_348, SYSTEM=RECTANGULAR
7.55654642, 8.56030017, -209.32065361, 8.54623321, 9.55460777, -209.14212503
3, 0.
*SHELL SECTION, ELSET=ELEM_348, COMPOSITE, ORIENTATION=ORI_348
1.69075215, 3, CFRP, 0.
** SOURCE_TET=1558
*ELSET, ELSET=ELEM_349
349
*ORIENTATION, NAME=ORI_349, SYSTEM=RECTANGULAR
4.96790306, 11.54337255, -209.15847386, 5.56618126, 12.81125553, -208.97263535
3, 0.
*SHELL SECTION, ELSET=ELEM_349, COMPOSITE, ORIENTATION=ORI_349
1.68940067, 3, CFRP, 0.
** SOURCE_TET=2119
*ELSET, ELSET=ELEM_350
350
*ORIENTATION, NAME=ORI_350, SYSTEM=RECTANGULAR
3.33636719, 12.14497910, -209.17510646, 3.79244010, 13.47070724, -208.98951977
3, 0.
*SHELL SECTION, ELSET=ELEM_350, COMPOSITE, ORIENTATION=ORI_350
1.68946803, 3, CFRP, 0.
** SOURCE_TET=1950
*ELSET, ELSET=ELEM_351
351
*ORIENTATION, NAME=ORI_351, SYSTEM=RECTANGULAR
-0.68844900, 11.39704770, -209.32125824, -0.69427668, 12.79991060, -209.14253572
3, 0.
*SHELL SECTION, ELSET=ELEM_351, COMPOSITE, ORIENTATION=ORI_351
1.69072199, 3, CFRP, 0.
** SOURCE_TET=2127
*ELSET, ELSET=ELEM_352
352
*ORIENTATION, NAME=ORI_352, SYSTEM=RECTANGULAR
-4.58710627, 11.06164794, -209.24914281, -5.07327351, 12.37779340, -209.07193522
3, 0.
*SHELL SECTION, ELSET=ELEM_352, COMPOSITE, ORIENTATION=ORI_352
1.69006419, 3, CFRP, 0.
** SOURCE_TET=1734
*ELSET, ELSET=ELEM_353
353
*ORIENTATION, NAME=ORI_353, SYSTEM=RECTANGULAR
-6.07059469, 10.36753224, -209.25773077, -6.69482441, 11.62413818, -209.08087272
3, 0.
*SHELL SECTION, ELSET=ELEM_353, COMPOSITE, ORIENTATION=ORI_353
1.69011688, 3, CFRP, 0.
** SOURCE_TET=2578
*ELSET, ELSET=ELEM_354
354
*ORIENTATION, NAME=ORI_354, SYSTEM=RECTANGULAR
-9.75561767, 7.59260581, -209.20872146, -10.80255475, 8.52538664, -209.02475763
3, 0.
*SHELL SECTION, ELSET=ELEM_354, COMPOSITE, ORIENTATION=ORI_354
1.68974710, 3, CFRP, 0.
** SOURCE_TET=1347
*ELSET, ELSET=ELEM_355
355
*ORIENTATION, NAME=ORI_355, SYSTEM=RECTANGULAR
-8.64745921, 8.80179643, -209.19138065, -9.59102146, 9.83900518, -209.00729297
3, 0.
*SHELL SECTION, ELSET=ELEM_355, COMPOSITE, ORIENTATION=ORI_355
1.68967533, 3, CFRP, 0.
** SOURCE_TET=2693
*ELSET, ELSET=ELEM_356
356
*ORIENTATION, NAME=ORI_356, SYSTEM=RECTANGULAR
-11.20722284, 5.18303155, -209.18857711, -12.49421749, 5.73813325, -209.00014446
3, 0.
*SHELL SECTION, ELSET=ELEM_356, COMPOSITE, ORIENTATION=ORI_356
1.68811393, 3, CFRP, 0.
** SOURCE_TET=2021
*ELSET, ELSET=ELEM_357
357
*ORIENTATION, NAME=ORI_357, SYSTEM=RECTANGULAR
-11.81577824, 3.91090824, -209.19698701, -13.14511484, 4.35814722, -209.01576471
3, 0.
*SHELL SECTION, ELSET=ELEM_357, COMPOSITE, ORIENTATION=ORI_357
1.68800354, 3, CFRP, 0.
** SOURCE_TET=7274
*ELSET, ELSET=ELEM_358
358
*ORIENTATION, NAME=ORI_358, SYSTEM=RECTANGULAR
-11.73402398, 0.37453643, -209.28225975, -13.13706681, 0.41704523, -209.11002791
3, 0.
*SHELL SECTION, ELSET=ELEM_358, COMPOSITE, ORIENTATION=ORI_358
1.68876648, 3, CFRP, 0.
** SOURCE_TET=3313
*ELSET, ELSET=ELEM_359
359
*ORIENTATION, NAME=ORI_359, SYSTEM=RECTANGULAR
-11.60349500, -1.89405182, -209.27559458, -12.98793941, -2.12575717, -209.10347167
3, 0.
*SHELL SECTION, ELSET=ELEM_359, COMPOSITE, ORIENTATION=ORI_359
1.69028902, 3, CFRP, 0.
** SOURCE_TET=3203
*ELSET, ELSET=ELEM_360
360
*ORIENTATION, NAME=ORI_360, SYSTEM=RECTANGULAR
-10.27981535, -5.38129080, -209.29954261, -11.50955856, -6.05775938, -209.12598594
3, 0.
*SHELL SECTION, ELSET=ELEM_360, COMPOSITE, ORIENTATION=ORI_360
1.69048226, 3, CFRP, 0.
** SOURCE_TET=2261
*ELSET, ELSET=ELEM_361
361
*ORIENTATION, NAME=ORI_361, SYSTEM=RECTANGULAR
-7.62570359, -8.55521434, -209.31514655, -8.62135885, -9.54336139, -209.13560269
3, 0.
*SHELL SECTION, ELSET=ELEM_361, COMPOSITE, ORIENTATION=ORI_361
1.69071496, 3, CFRP, 0.
** SOURCE_TET=2112
*ELSET, ELSET=ELEM_362
362
*ORIENTATION, NAME=ORI_362, SYSTEM=RECTANGULAR
-3.11366438, -11.41859179, -209.27817298, -3.46453748, -12.77757205, -209.10479270
3, 0.
*SHELL SECTION, ELSET=ELEM_362, COMPOSITE, ORIENTATION=ORI_362
1.69019079, 3, CFRP, 0.
** SOURCE_TET=2138
*ELSET, ELSET=ELEM_363
363
*ORIENTATION, NAME=ORI_363, SYSTEM=RECTANGULAR
-4.61628525, -10.93204406, -209.26618506, -5.21568122, -12.20098632, -209.09151388
3, 0.
*SHELL SECTION, ELSET=ELEM_363, COMPOSITE, ORIENTATION=ORI_363
1.69018447, 3, CFRP, 0.
** SOURCE_TET=1542
*ELSET, ELSET=ELEM_364
364
*ORIENTATION, NAME=ORI_364, SYSTEM=RECTANGULAR
0.68762625, -11.41831342, -209.31836332, 0.68520661, -12.82125082, -209.14014769
3, 0.
*SHELL SECTION, ELSET=ELEM_364, COMPOSITE, ORIENTATION=ORI_364
1.69071555, 3, CFRP, 0.
** SOURCE_TET=2933
*ELSET, ELSET=ELEM_365
365
*ORIENTATION, NAME=ORI_365, SYSTEM=RECTANGULAR
6.21646040, -10.94251515, -209.17624499, 6.84684005, -12.19482081, -208.99090203
3, 0.
*SHELL SECTION, ELSET=ELEM_365, COMPOSITE, ORIENTATION=ORI_365
1.68792796, 3, CFRP, 0.
** SOURCE_TET=2675
*ELSET, ELSET=ELEM_366
366
*ORIENTATION, NAME=ORI_366, SYSTEM=RECTANGULAR
4.60733681, -11.68663846, -209.15920485, 5.10611189, -12.99681837, -208.97305432
3, 0.
*SHELL SECTION, ELSET=ELEM_366, COMPOSITE, ORIENTATION=ORI_366
1.68787599, 3, CFRP, 0.
** SOURCE_TET=1758
*ELSET, ELSET=ELEM_367
367
*ORIENTATION, NAME=ORI_367, SYSTEM=RECTANGULAR
8.49418428, -7.57322268, -209.32577807, 9.53986938, -8.50848603, -209.14738206
3, 0.
*SHELL SECTION, ELSET=ELEM_367, COMPOSITE, ORIENTATION=ORI_367
1.68895638, 3, CFRP, 0.
** SOURCE_TET=5551
*ELSET, ELSET=ELEM_368
368
*ORIENTATION, NAME=ORI_368, SYSTEM=RECTANGULAR
10.71459947, -4.15059888, -209.31724837, 12.01261831, -4.68485500, -209.14486076
3, 0.
*SHELL SECTION, ELSET=ELEM_368, COMPOSITE, ORIENTATION=ORI_368
1.69064724, 3, CFRP, 0.
** SOURCE_TET=4310
*ELSET, ELSET=ELEM_369
369
*ORIENTATION, NAME=ORI_369, SYSTEM=RECTANGULAR
-32.95821740, -93.71659889, -79.52508380, -32.40042260, -93.96830223, -78.25012875
3, 0.
*SHELL SECTION, ELSET=ELEM_369, COMPOSITE, ORIENTATION=ORI_369
1.26209509, 3, CFRP, 0.
** SOURCE_TET=6615
*ELSET, ELSET=ELEM_370
370
*ORIENTATION, NAME=ORI_370, SYSTEM=RECTANGULAR
-20.65039850, -97.34153900, -72.44261347, -20.03126971, -97.42988123, -71.17419903
3, 0.
*SHELL SECTION, ELSET=ELEM_370, COMPOSITE, ORIENTATION=ORI_370
1.26171124, 3, CFRP, 0.
** SOURCE_TET=2965
*ELSET, ELSET=ELEM_371
371
*ORIENTATION, NAME=ORI_371, SYSTEM=RECTANGULAR
-7.17735622, -99.07137889, -80.29126330, -6.58495901, -99.16673011, -79.01064872
3, 0.
*SHELL SECTION, ELSET=ELEM_371, COMPOSITE, ORIENTATION=ORI_371
1.26245129, 3, CFRP, 0.
** SOURCE_TET=1178
*ELSET, ELSET=ELEM_372
372
*ORIENTATION, NAME=ORI_372, SYSTEM=RECTANGULAR
-97.20862520, -20.92420241, 68.56407042, -97.09010491, -21.65653520, 69.76808106
3, 0.
*SHELL SECTION, ELSET=ELEM_372, COMPOSITE, ORIENTATION=ORI_372
1.25827694, 3, CFRP, 0.
** SOURCE_TET=6482
*ELSET, ELSET=ELEM_373
373
*ORIENTATION, NAME=ORI_373, SYSTEM=RECTANGULAR
-98.61946462, -13.01494053, 80.39348301, -98.49708541, -13.73426644, 81.60492577
3, 0.
*SHELL SECTION, ELSET=ELEM_373, COMPOSITE, ORIENTATION=ORI_373
1.25843227, 3, CFRP, 0.
** SOURCE_TET=3154
*ELSET, ELSET=ELEM_374
374
*ORIENTATION, NAME=ORI_374, SYSTEM=RECTANGULAR
-92.39874123, -36.21361051, 69.81393185, -92.09042463, -36.88768954, 71.01832312
3, 0.
*SHELL SECTION, ELSET=ELEM_374, COMPOSITE, ORIENTATION=ORI_374
1.25829303, 3, CFRP, 0.
** SOURCE_TET=2089
*ELSET, ELSET=ELEM_375
375
*ORIENTATION, NAME=ORI_375, SYSTEM=RECTANGULAR
-88.98261989, -43.82297511, 82.85696570, -88.69381311, -44.48587634, 84.07234737
3, 0.
*SHELL SECTION, ELSET=ELEM_375, COMPOSITE, ORIENTATION=ORI_375
1.25852430, 3, CFRP, 0.
** SOURCE_TET=6543
*ELSET, ELSET=ELEM_376
376
*ORIENTATION, NAME=ORI_376, SYSTEM=RECTANGULAR
-90.12133314, 42.65910357, 80.42373777, -90.41642630, 41.99661521, 81.63783381
3, 0.
*SHELL SECTION, ELSET=ELEM_376, COMPOSITE, ORIENTATION=ORI_376
1.25849736, 3, CFRP, 0.
** SOURCE_TET=6782
*ELSET, ELSET=ELEM_377
377
*ORIENTATION, NAME=ORI_377, SYSTEM=RECTANGULAR
-84.38150468, 52.50635228, 74.67809930, -84.83117706, 51.92773913, 75.88764532
3, 0.
*SHELL SECTION, ELSET=ELEM_377, COMPOSITE, ORIENTATION=ORI_377
1.25841987, 3, CFRP, 0.
** SOURCE_TET=6635
*ELSET, ELSET=ELEM_378
378
*ORIENTATION, NAME=ORI_378, SYSTEM=RECTANGULAR
-77.06960263, 62.84677960, 82.05206455, -77.46202875, 62.23540469, 83.26541630
3, 0.
*SHELL SECTION, ELSET=ELEM_378, COMPOSITE, ORIENTATION=ORI_378
1.25851953, 3, CFRP, 0.
** SOURCE_TET=3032
*ELSET, ELSET=ELEM_379
379
*ORIENTATION, NAME=ORI_379, SYSTEM=RECTANGULAR
46.43386384, 87.88292083, 75.83758211, 45.77023082, 88.18506403, 77.04931669
3, 0.
*SHELL SECTION, ELSET=ELEM_379, COMPOSITE, ORIENTATION=ORI_379
1.25845027, 3, CFRP, 0.
** SOURCE_TET=5396
*ELSET, ELSET=ELEM_380
380
*ORIENTATION, NAME=ORI_380, SYSTEM=RECTANGULAR
36.08164532, 92.70415460, 67.64560886, 35.40248725, 93.00974128, 68.84784058
3, 0.
*SHELL SECTION, ELSET=ELEM_380, COMPOSITE, ORIENTATION=ORI_380
1.25824440, 3, CFRP, 0.
** SOURCE_TET=2927
*ELSET, ELSET=ELEM_381
381
*ORIENTATION, NAME=ORI_381, SYSTEM=RECTANGULAR
21.33042207, 96.91158437, 76.13991581, 20.60779834, 97.00853653, 77.35169765
3, 0.
*SHELL SECTION, ELSET=ELEM_381, COMPOSITE, ORIENTATION=ORI_381
1.25845528, 3, CFRP, 0.
** SOURCE_TET=2556
*ELSET, ELSET=ELEM_382
382
*ORIENTATION, NAME=ORI_382, SYSTEM=RECTANGULAR
19.69824562, -97.43092509, 76.25393610, 20.40960816, -97.24375513, 77.46179815
3, 0.
*SHELL SECTION, ELSET=ELEM_382, COMPOSITE, ORIENTATION=ORI_382
1.25836611, 3, CFRP, 0.
** SOURCE_TET=5033
*ELSET, ELSET=ELEM_383
383
*ORIENTATION, NAME=ORI_383, SYSTEM=RECTANGULAR
30.40015870, -94.80085694, 68.37875162, 31.11726616, -94.60658109, 69.58208607
3, 0.
*SHELL SECTION, ELSET=ELEM_383, COMPOSITE, ORIENTATION=ORI_383
1.25826371, 3, CFRP, 0.
** SOURCE_TET=3510
*ELSET, ELSET=ELEM_384
384
*ORIENTATION, NAME=ORI_384, SYSTEM=RECTANGULAR
43.62034448, -89.24339243, 77.78056293, 44.24952454, -88.87928460, 78.99364081
3, 0.
*SHELL SECTION, ELSET=ELEM_384, COMPOSITE, ORIENTATION=ORI_384
1.25847733, 3, CFRP, 0.
** SOURCE_TET=2385
*ELSET, ELSET=ELEM_385
385
*ORIENTATION, NAME=ORI_385, SYSTEM=RECTANGULAR
-51.04766381, 85.33293775, -70.80289809, -51.57085988, 84.97917824, -69.53754435
3, 0.
*SHELL SECTION, ELSET=ELEM_385, COMPOSITE, ORIENTATION=ORI_385
1.26150405, 3, CFRP, 0.
** SOURCE_TET=6228
*ELSET, ELSET=ELEM_386
386
*ORIENTATION, NAME=ORI_386, SYSTEM=RECTANGULAR
-58.05266404, 80.82022943, -82.46768876, -58.55114139, 80.49676264, -81.18437681
3, 0.
*SHELL SECTION, ELSET=ELEM_386, COMPOSITE, ORIENTATION=ORI_386
1.26257479, 3, CFRP, 0.
** SOURCE_TET=3293
*ELSET, ELSET=ELEM_387
387
*ORIENTATION, NAME=ORI_387, SYSTEM=RECTANGULAR
-36.69571651, 92.21569188, -72.27237442, -37.28109412, 92.03081952, -70.99834332
3, 0.
*SHELL SECTION, ELSET=ELEM_387, COMPOSITE, ORIENTATION=ORI_387
1.26200771, 3, CFRP, 0.
** SOURCE_TET=2198
*ELSET, ELSET=ELEM_388
388
*ORIENTATION, NAME=ORI_388, SYSTEM=RECTANGULAR
-29.15117690, 94.76910438, -85.26294027, -29.70516187, 94.57038445, -83.97701218
3, 0.
*SHELL SECTION, ELSET=ELEM_388, COMPOSITE, ORIENTATION=ORI_388
1.26273310, 3, CFRP, 0.
** SOURCE_TET=1641
*ELSET, ELSET=ELEM_389
389
*ORIENTATION, NAME=ORI_389, SYSTEM=RECTANGULAR
-32.75294138, -93.84137271, 76.40836433, -32.04839016, -94.04918046, 77.61684417
3, 0.
*SHELL SECTION, ELSET=ELEM_389, COMPOSITE, ORIENTATION=ORI_389
1.25837946, 3, CFRP, 0.
** SOURCE_TET=3163
*ELSET, ELSET=ELEM_390
390
*ORIENTATION, NAME=ORI_390, SYSTEM=RECTANGULAR
-44.28976287, -89.07934420, 68.53302524, -43.64325071, -89.44092213, 69.73771749
3, 0.
*SHELL SECTION, ELSET=ELEM_390, COMPOSITE, ORIENTATION=ORI_390
1.25829613, 3, CFRP, 0.
** SOURCE_TET=3795
*ELSET, ELSET=ELEM_391
391
*ORIENTATION, NAME=ORI_391, SYSTEM=RECTANGULAR
-56.10051057, -82.06068635, 78.02755125, -55.48055500, -82.44097593, 79.24041354
3, 0.
*SHELL SECTION, ELSET=ELEM_391, COMPOSITE, ORIENTATION=ORI_391
1.25848067, 3, CFRP, 0.
** SOURCE_TET=3021
*ELSET, ELSET=ELEM_392
392
*ORIENTATION, NAME=ORI_392, SYSTEM=RECTANGULAR
-89.77961683, -42.38999828, -80.59950563, -89.57163304, -42.96152892, -79.32275371
3, 0.
*SHELL SECTION, ELSET=ELEM_392, COMPOSITE, ORIENTATION=ORI_392
1.26219010, 3, CFRP, 0.
** SOURCE_TET=7392
*ELSET, ELSET=ELEM_393
393
*ORIENTATION, NAME=ORI_393, SYSTEM=RECTANGULAR
-76.84456022, -62.96061927, -79.68400662, -76.49723201, -63.46834870, -78.41059626
3, 0.
*SHELL SECTION, ELSET=ELEM_393, COMPOSITE, ORIENTATION=ORI_393
1.26200509, 3, CFRP, 0.
** SOURCE_TET=6529
*ELSET, ELSET=ELEM_394
394
*ORIENTATION, NAME=ORI_394, SYSTEM=RECTANGULAR
-83.53441261, -54.41313367, -72.90167466, -83.17010865, -54.92293170, -71.63384636
3, 0.
*SHELL SECTION, ELSET=ELEM_394, COMPOSITE, ORIENTATION=ORI_394
1.26163948, 3, CFRP, 0.
** SOURCE_TET=6979
*ELSET, ELSET=ELEM_395
395
*ORIENTATION, NAME=ORI_395, SYSTEM=RECTANGULAR
-92.78571484, 36.35619270, -82.41465349, -93.02437439, 35.81175271, -81.13144396
3, 0.
*SHELL SECTION, ELSET=ELEM_395, COMPOSITE, ORIENTATION=ORI_395
1.26257086, 3, CFRP, 0.
** SOURCE_TET=6981
*ELSET, ELSET=ELEM_396
396
*ORIENTATION, NAME=ORI_396, SYSTEM=RECTANGULAR
-96.08051913, 25.95117443, -76.58879007, -96.17791438, 25.33696317, -75.31864886
3, 0.
*SHELL SECTION, ELSET=ELEM_396, COMPOSITE, ORIENTATION=ORI_396
1.26183510, 3, CFRP, 0.
** SOURCE_TET=6613
*ELSET, ELSET=ELEM_397
397
*ORIENTATION, NAME=ORI_397, SYSTEM=RECTANGULAR
-98.43278226, 13.37328179, -83.89666264, -98.59621383, 12.79982719, -82.61430546
3, 0.
*SHELL SECTION, ELSET=ELEM_397, COMPOSITE, ORIENTATION=ORI_397
1.26265121, 3, CFRP, 0.
** SOURCE_TET=3197
*ELSET, ELSET=ELEM_398
398
*ORIENTATION, NAME=ORI_398, SYSTEM=RECTANGULAR
45.87818077, 88.11649856, -77.93403086, 45.36275119, 88.43029631, -76.65502214
3, 0.
*SHELL SECTION, ELSET=ELEM_398, COMPOSITE, ORIENTATION=ORI_398
1.26232541, 3, CFRP, 0.
** SOURCE_TET=7390
*ELSET, ELSET=ELEM_399
399
*ORIENTATION, NAME=ORI_399, SYSTEM=RECTANGULAR
35.21405432, 93.11734897, -70.64405123, 34.62732367, 93.30907398, -69.37165638
3, 0.
*SHELL SECTION, ELSET=ELEM_399, COMPOSITE, ORIENTATION=ORI_399
1.26192451, 3, CFRP, 0.
** SOURCE_TET=4498
*ELSET, ELSET=ELEM_400
400
*ORIENTATION, NAME=ORI_400, SYSTEM=RECTANGULAR
21.64363682, 96.92138274, -80.61039456, 21.05858022, 97.08996237, -79.33395823
3, 0.
*SHELL SECTION, ELSET=ELEM_400, COMPOSITE, ORIENTATION=ORI_400
1.26217365, 3, CFRP, 0.
** SOURCE_TET=4098
*ELSET, ELSET=ELEM_401
401
*ORIENTATION, NAME=ORI_401, SYSTEM=RECTANGULAR
94.48475530, -30.81127088, -28.45668565, 94.73005581, -30.15526832, -27.22807331
3, 0.
*SHELL SECTION, ELSET=ELEM_401, COMPOSITE, ORIENTATION=ORI_401
1.25964856, 3, CFRP, 0.
** SOURCE_TET=3816
*ELSET, ELSET=ELEM_402
402
*ORIENTATION, NAME=ORI_402, SYSTEM=RECTANGULAR
91.70655621, -38.24256043, -14.74441354, 91.95493784, -37.57805080, -13.52100293
3, 0.
*SHELL SECTION, ELSET=ELEM_402, COMPOSITE, ORIENTATION=ORI_402
1.25940084, 3, CFRP, 0.
** SOURCE_TET=7347
*ELSET, ELSET=ELEM_403
403
*ORIENTATION, NAME=ORI_403, SYSTEM=RECTANGULAR
94.47250141, -30.84909626, -1.02518713, 94.72471856, -30.17559529, 0.19250862
3, 0.
*SHELL SECTION, ELSET=ELEM_403, COMPOSITE, ORIENTATION=ORI_403
1.25915766, 3, CFRP, 0.
** SOURCE_TET=4860
*ELSET, ELSET=ELEM_404
404
*ORIENTATION, NAME=ORI_404, SYSTEM=RECTANGULAR
96.46385148, 25.03248841, 3.41590962, 96.25595699, 25.73054195, 4.62813944
3, 0.
*SHELL SECTION, ELSET=ELEM_404, COMPOSITE, ORIENTATION=ORI_404
1.25892198, 3, CFRP, 0.
** SOURCE_TET=5201
*ELSET, ELSET=ELEM_405
405
*ORIENTATION, NAME=ORI_405, SYSTEM=RECTANGULAR
93.73038485, 33.87393447, -4.74172903, 93.51262668, 34.55654095, -3.52245475
3, 0.
*SHELL SECTION, ELSET=ELEM_405, COMPOSITE, ORIENTATION=ORI_405
1.25922406, 3, CFRP, 0.
** SOURCE_TET=4111
*ELSET, ELSET=ELEM_406
406
*ORIENTATION, NAME=ORI_406, SYSTEM=RECTANGULAR
93.80106054, 32.47228995, -28.97088841, 93.53825080, 33.12130095, -27.74218350
3, 0.
*SHELL SECTION, ELSET=ELEM_406, COMPOSITE, ORIENTATION=ORI_406
1.25965893, 3, CFRP, 0.
** SOURCE_TET=4665
*ELSET, ELSET=ELEM_407
407
*ORIENTATION, NAME=ORI_407, SYSTEM=RECTANGULAR
91.73684598, 38.13608673, -18.93011146, 91.55329712, 38.82047289, -17.70621383
3, 0.
*SHELL SECTION, ELSET=ELEM_407, COMPOSITE, ORIENTATION=ORI_407
1.25947702, 3, CFRP, 0.
** SOURCE_TET=2029
*ELSET, ELSET=ELEM_408
408
*ORIENTATION, NAME=ORI_408, SYSTEM=RECTANGULAR
63.80624649, -76.13468451, -71.06090223, 64.27243318, -75.71213712, -69.79436219
3, 0.
*SHELL SECTION, ELSET=ELEM_408, COMPOSITE, ORIENTATION=ORI_408
1.26156163, 3, CFRP, 0.
** SOURCE_TET=3368
*ELSET, ELSET=ELEM_409
409
*ORIENTATION, NAME=ORI_409, SYSTEM=RECTANGULAR
70.39149276, -70.00391954, -83.02588796, 70.83967187, -69.61482836, -81.74224333
3, 0.
*SHELL SECTION, ELSET=ELEM_409, COMPOSITE, ORIENTATION=ORI_409
1.26260543, 3, CFRP, 0.
** SOURCE_TET=3189
*ELSET, ELSET=ELEM_410
410
*ORIENTATION, NAME=ORI_410, SYSTEM=RECTANGULAR
49.80147792, -85.77681823, -71.76278018, 50.36463927, -85.48694799, -70.49833384
3, 0.
*SHELL SECTION, ELSET=ELEM_410, COMPOSITE, ORIENTATION=ORI_410
1.26144946, 3, CFRP, 0.
** SOURCE_TET=2641
*ELSET, ELSET=ELEM_411
411
*ORIENTATION, NAME=ORI_411, SYSTEM=RECTANGULAR
41.82253508, -89.90269835, -84.08754035, 42.34671620, -89.63020455, -82.80263518
3, 0.
*SHELL SECTION, ELSET=ELEM_411, COMPOSITE, ORIENTATION=ORI_411
1.26266575, 3, CFRP, 0.
** SOURCE_TET=5690
*ELSET, ELSET=ELEM_412
412
*ORIENTATION, NAME=ORI_412, SYSTEM=RECTANGULAR
94.36315398, -31.06676921, 26.56681187, 94.62591095, -30.37074677, 27.76952195
3, 0.
*SHELL SECTION, ELSET=ELEM_412, COMPOSITE, ORIENTATION=ORI_412
1.25852895, 3, CFRP, 0.
** SOURCE_TET=4141
*ELSET, ELSET=ELEM_413
413
*ORIENTATION, NAME=ORI_413, SYSTEM=RECTANGULAR
93.78390398, -32.12609179, 55.16840182, 94.06691727, -31.41609285, 56.35827786
3, 0.
*SHELL SECTION, ELSET=ELEM_413, COMPOSITE, ORIENTATION=ORI_413
1.25799894, 3, CFRP, 0.
** SOURCE_TET=2283
*ELSET, ELSET=ELEM_414
414
*ORIENTATION, NAME=ORI_414, SYSTEM=RECTANGULAR
90.91908514, -39.74670120, 41.48747660, 91.17651939, -39.03141151, 42.67999003
3, 0.
*SHELL SECTION, ELSET=ELEM_414, COMPOSITE, ORIENTATION=ORI_414
1.25813329, 3, CFRP, 0.
** SOURCE_TET=5370
*ELSET, ELSET=ELEM_415
415
*ORIENTATION, NAME=ORI_415, SYSTEM=RECTANGULAR
96.64739734, 24.07470088, 20.79539003, 96.47834075, 24.79520080, 22.00050402
3, 0.
*SHELL SECTION, ELSET=ELEM_415, COMPOSITE, ORIENTATION=ORI_415
1.25862598, 3, CFRP, 0.
** SOURCE_TET=5247
*ELSET, ELSET=ELEM_416
416
*ORIENTATION, NAME=ORI_416, SYSTEM=RECTANGULAR
94.02282294, 32.86085921, 28.06214930, 93.76000156, 33.55816397, 29.26410229
3, 0.
*SHELL SECTION, ELSET=ELEM_416, COMPOSITE, ORIENTATION=ORI_416
1.25850427, 3, CFRP, 0.
** SOURCE_TET=6785
*ELSET, ELSET=ELEM_417
417
*ORIENTATION, NAME=ORI_417, SYSTEM=RECTANGULAR
96.03755908, 26.39018854, 52.96481396, 95.80822236, 27.12144641, 54.15337048
3, 0.
*SHELL SECTION, ELSET=ELEM_417, COMPOSITE, ORIENTATION=ORI_417
1.25797248, 3, CFRP, 0.
** SOURCE_TET=7000
*ELSET, ELSET=ELEM_418
418
*ORIENTATION, NAME=ORI_418, SYSTEM=RECTANGULAR
93.60317953, 33.81389165, 41.95080736, 93.38637530, 34.54284588, 43.14312513
3, 0.
*SHELL SECTION, ELSET=ELEM_418, COMPOSITE, ORIENTATION=ORI_418
1.25812614, 3, CFRP, 0.
** SOURCE_TET=3524
*ELSET, ELSET=ELEM_419
419
*ORIENTATION, NAME=ORI_419, SYSTEM=RECTANGULAR
-50.88065714, 85.40355403, 68.61642054, -51.51566090, 85.01353828, 69.81835978
3, 0.
*SHELL SECTION, ELSET=ELEM_419, COMPOSITE, ORIENTATION=ORI_419
1.25823438, 3, CFRP, 0.
** SOURCE_TET=5116
*ELSET, ELSET=ELEM_420
420
*ORIENTATION, NAME=ORI_420, SYSTEM=RECTANGULAR
-37.36043208, 92.12314355, 70.15785895, -38.05513880, 91.85662352, 71.36050173
3, 0.
*SHELL SECTION, ELSET=ELEM_420, COMPOSITE, ORIENTATION=ORI_420
1.25825405, 3, CFRP, 0.
** SOURCE_TET=3372
*ELSET, ELSET=ELEM_421
421
*ORIENTATION, NAME=ORI_421, SYSTEM=RECTANGULAR
-59.44704335, 79.60937518, 80.17758092, -60.01514311, 79.15905175, 81.39185908
3, 0.
*SHELL SECTION, ELSET=ELEM_421, COMPOSITE, ORIENTATION=ORI_421
1.25850999, 3, CFRP, 0.
** SOURCE_TET=3054
*ELSET, ELSET=ELEM_422
422
*ORIENTATION, NAME=ORI_422, SYSTEM=RECTANGULAR
-29.88319999, 94.63317747, 83.23625164, -30.55533245, 94.37354442, 84.45314467
3, 0.
*SHELL SECTION, ELSET=ELEM_422, COMPOSITE, ORIENTATION=ORI_422
1.25855851, 3, CFRP, 0.
** SOURCE_TET=6255
*ELSET, ELSET=ELEM_423
423
*ORIENTATION, NAME=ORI_423, SYSTEM=RECTANGULAR
68.04379894, 72.36459930, -80.59213561, 67.63834860, 72.82141206, -79.31662312
3, 0.
*SHELL SECTION, ELSET=ELEM_423, COMPOSITE, ORIENTATION=ORI_423
1.26214230, 3, CFRP, 0.
** SOURCE_TET=6562
*ELSET, ELSET=ELEM_424
424
*ORIENTATION, NAME=ORI_424, SYSTEM=RECTANGULAR
84.47389046, 52.34828058, -82.90387326, 84.22535962, 52.89245563, -81.62242644
3, 0.
*SHELL SECTION, ELSET=ELEM_424, COMPOSITE, ORIENTATION=ORI_424
1.26255739, 3, CFRP, 0.
** SOURCE_TET=6838
*ELSET, ELSET=ELEM_425
425
*ORIENTATION, NAME=ORI_425, SYSTEM=RECTANGULAR
77.36537127, 62.60607939, -75.89159905, 76.94072237, 63.05755555, -74.62044108
3, 0.
*SHELL SECTION, ELSET=ELEM_425, COMPOSITE, ORIENTATION=ORI_425
1.26188576, 3, CFRP, 0.
** SOURCE_TET=4689
*ELSET, ELSET=ELEM_426
426
*ORIENTATION, NAME=ORI_426, SYSTEM=RECTANGULAR
81.98927750, 56.51932380, 74.90224076, 81.55040316, 57.11376163, 76.10807367
3, 0.
*SHELL SECTION, ELSET=ELEM_426, COMPOSITE, ORIENTATION=ORI_426
1.25831604, 3, CFRP, 0.
** SOURCE_TET=4283
*ELSET, ELSET=ELEM_427
427
*ORIENTATION, NAME=ORI_427, SYSTEM=RECTANGULAR
74.73817659, 65.66247727, 67.27990705, 74.26567205, 66.23859830, 68.48191538
3, 0.
*SHELL SECTION, ELSET=ELEM_427, COMPOSITE, ORIENTATION=ORI_427
1.25823975, 3, CFRP, 0.
** SOURCE_TET=6878
*ELSET, ELSET=ELEM_428
428
*ORIENTATION, NAME=ORI_428, SYSTEM=RECTANGULAR
66.43100598, 74.15026489, 77.97858950, 65.86628407, 74.60812679, 79.19162357
3, 0.
*SHELL SECTION, ELSET=ELEM_428, COMPOSITE, ORIENTATION=ORI_428
1.25848007, 3, CFRP, 0.
** SOURCE_TET=4624
*ELSET, ELSET=ELEM_429
429
*ORIENTATION, NAME=ORI_429, SYSTEM=RECTANGULAR
85.34253624, -51.06380090, 76.36777766, 85.69576306, -50.42751360, 77.58036550
3, 0.
*SHELL SECTION, ELSET=ELEM_429, COMPOSITE, ORIENTATION=ORI_429
1.25846672, 3, CFRP, 0.
** SOURCE_TET=6156
*ELSET, ELSET=ELEM_430
430
*ORIENTATION, NAME=ORI_430, SYSTEM=RECTANGULAR
79.51137575, -59.88839125, 68.63333462, 79.97213130, -59.30283860, 69.83534644
3, 0.
*SHELL SECTION, ELSET=ELEM_430, COMPOSITE, ORIENTATION=ORI_430
1.25823605, 3, CFRP, 0.
** SOURCE_TET=4798
*ELSET, ELSET=ELEM_431
431
*ORIENTATION, NAME=ORI_431, SYSTEM=RECTANGULAR
69.88281635, -70.60853415, 77.90557777, 70.39075319, -70.08855000, 79.11867984
3, 0.
*SHELL SECTION, ELSET=ELEM_431, COMPOSITE, ORIENTATION=ORI_431
1.25847912, 3, CFRP, 0.
** SOURCE_TET=4803
*ELSET, ELSET=ELEM_432
432
*ORIENTATION, NAME=ORI_432, SYSTEM=RECTANGULAR
94.49200695, -30.79192187, -55.92445270, 94.72755459, -30.16165319, -54.68055612
3, 0.
*SHELL SECTION, ELSET=ELEM_432, COMPOSITE, ORIENTATION=ORI_432
1.26038826, 3, CFRP, 0.
** SOURCE_TET=5049
*ELSET, ELSET=ELEM_433
433
*ORIENTATION, NAME=ORI_433, SYSTEM=RECTANGULAR
92.27486477, -37.10074897, -70.16194942, 92.47412812, -36.50456678, -68.89511837
3, 0.
*SHELL SECTION, ELSET=ELEM_433, COMPOSITE, ORIENTATION=ORI_433
1.26157951, 3, CFRP, 0.
** SOURCE_TET=7423
*ELSET, ELSET=ELEM_434
434
*ORIENTATION, NAME=ORI_434, SYSTEM=RECTANGULAR
95.14082000, -29.19329276, -81.23795106, 95.34471909, -28.63482942, -79.95477381
3, 0.
*SHELL SECTION, ELSET=ELEM_434, COMPOSITE, ORIENTATION=ORI_434
1.26257181, 3, CFRP, 0.
** SOURCE_TET=7328
*ELSET, ELSET=ELEM_435
435
*ORIENTATION, NAME=ORI_435, SYSTEM=RECTANGULAR
94.14424261, 32.38665416, -55.98524884, 93.90373372, 32.99701994, -54.73240843
3, 0.
*SHELL SECTION, ELSET=ELEM_435, COMPOSITE, ORIENTATION=ORI_435
1.26083601, 3, CFRP, 0.
** SOURCE_TET=5231
*ELSET, ELSET=ELEM_436
436
*ORIENTATION, NAME=ORI_436, SYSTEM=RECTANGULAR
90.23240933, 41.45702581, -66.41513197, 90.04073921, 42.06610166, -65.15327256
3, 0.
*SHELL SECTION, ELSET=ELEM_436, COMPOSITE, ORIENTATION=ORI_436
1.26137161, 3, CFRP, 0.
** SOURCE_TET=7435
*ELSET, ELSET=ELEM_437
437
*ORIENTATION, NAME=ORI_437, SYSTEM=RECTANGULAR
95.03452422, 29.63226289, -82.96486789, 94.87995469, 30.21745349, -81.68672071
3, 0.
*SHELL SECTION, ELSET=ELEM_437, COMPOSITE, ORIENTATION=ORI_437
1.26226318, 3, CFRP, 0.
** SOURCE_TET=7426
*ELSET, ELSET=ELEM_438
438
*ORIENTATION, NAME=ORI_438, SYSTEM=RECTANGULAR
90.85946188, 40.36086444, -77.13478676, 90.54262948, 40.89364832, -75.86366183
3, 0.
*SHELL SECTION, ELSET=ELEM_438, COMPOSITE, ORIENTATION=ORI_438
1.26194310, 3, CFRP, 0.
** SOURCE_TET=4686
*ELSET, ELSET=ELEM_439
439
*ORIENTATION, NAME=ORI_439, SYSTEM=RECTANGULAR
91.71617737, -38.21649033, -42.17627704, 91.95571416, -37.57570355, -40.93853133
3, 0.
*SHELL SECTION, ELSET=ELEM_439, COMPOSITE, ORIENTATION=ORI_439
1.26007318, 3, CFRP, 0.
** SOURCE_TET=7326
*ELSET, ELSET=ELEM_440
440
*ORIENTATION, NAME=ORI_440, SYSTEM=RECTANGULAR
84.55122747, -52.23173978, -14.76094262, 84.94761679, -51.64718484, -13.53571977
3, 0.
*SHELL SECTION, ELSET=ELEM_440, COMPOSITE, ORIENTATION=ORI_440
1.25949085, 3, CFRP, 0.
** SOURCE_TET=3140
*ELSET, ELSET=ELEM_441
441
*ORIENTATION, NAME=ORI_441, SYSTEM=RECTANGULAR
80.12406890, -58.76308555, -28.45643340, 80.51479796, -58.18644941, -27.22565252
3, 0.
*SHELL SECTION, ELSET=ELEM_441, COMPOSITE, ORIENTATION=ORI_441
1.25973988, 3, CFRP, 0.
** SOURCE_TET=4360
*ELSET, ELSET=ELEM_442
442
*ORIENTATION, NAME=ORI_442, SYSTEM=RECTANGULAR
84.56578038, -52.21093152, -42.16038842, 84.95141267, -51.64193069, -40.92445727
3, 0.
*SHELL SECTION, ELSET=ELEM_442, COMPOSITE, ORIENTATION=ORI_442
1.25999379, 3, CFRP, 0.
** SOURCE_TET=2133
*ELSET, ELSET=ELEM_443
443
*ORIENTATION, NAME=ORI_443, SYSTEM=RECTANGULAR
80.10239134, -58.79340824, -1.07640076, 80.50743044, -58.19589680, 0.13970919
3, 0.
*SHELL SECTION, ELSET=ELEM_443, COMPOSITE, ORIENTATION=ORI_443
1.25908136, 3, CFRP, 0.
** SOURCE_TET=7357
*ELSET, ELSET=ELEM_444
444
*ORIENTATION, NAME=ORI_444, SYSTEM=RECTANGULAR
84.42859500, -52.45427940, 12.75705516, 84.84290560, -51.85153930, 13.96744811
3, 0.
*SHELL SECTION, ELSET=ELEM_444, COMPOSITE, ORIENTATION=ORI_444
1.25884211, 3, CFRP, 0.
** SOURCE_TET=2700
*ELSET, ELSET=ELEM_445
445
*ORIENTATION, NAME=ORI_445, SYSTEM=RECTANGULAR
91.59311327, -38.48097194, 12.78992497, 91.84840472, -37.79227999, 13.99844873
3, 0.
*SHELL SECTION, ELSET=ELEM_445, COMPOSITE, ORIENTATION=ORI_445
1.25876117, 3, CFRP, 0.
** SOURCE_TET=4454
*ELSET, ELSET=ELEM_446
446
*ORIENTATION, NAME=ORI_446, SYSTEM=RECTANGULAR
69.86421936, -70.68503131, -1.09098893, 70.40090244, -70.19769590, 0.12329089
3, 0.
*SHELL SECTION, ELSET=ELEM_446, COMPOSITE, ORIENTATION=ORI_446
1.25900388, 3, CFRP, 0.
** SOURCE_TET=2489
*ELSET, ELSET=ELEM_447
447
*ORIENTATION, NAME=ORI_447, SYSTEM=RECTANGULAR
64.00339078, -76.00156480, -14.83764050, 64.52820769, -75.52587896, -13.61359385
3, 0.
*SHELL SECTION, ELSET=ELEM_447, COMPOSITE, ORIENTATION=ORI_447
1.25943172, 3, CFRP, 0.
** SOURCE_TET=3095
*ELSET, ELSET=ELEM_448
448
*ORIENTATION, NAME=ORI_448, SYSTEM=RECTANGULAR
69.85804631, -70.68287217, -28.51926467, 70.37575205, -70.21321919, -27.28987179
3, 0.
*SHELL SECTION, ELSET=ELEM_448, COMPOSITE, ORIENTATION=ORI_448
1.25967932, 3, CFRP, 0.
** SOURCE_TET=1634
*ELSET, ELSET=ELEM_449
449
*ORIENTATION, NAME=ORI_449, SYSTEM=RECTANGULAR
64.00864061, -76.00320272, 12.57352102, 64.55212526, -75.50951068, 13.78219493
3, 0.
*SHELL SECTION, ELSET=ELEM_449, COMPOSITE, ORIENTATION=ORI_449
1.25876904, 3, CFRP, 0.
** SOURCE_TET=4501
*ELSET, ELSET=ELEM_450
450
*ORIENTATION, NAME=ORI_450, SYSTEM=RECTANGULAR
69.76882312, -70.78775891, 26.11805537, 70.32079269, -70.28981443, 27.32112681
3, 0.
*SHELL SECTION, ELSET=ELEM_450, COMPOSITE, ORIENTATION=ORI_450
1.25854063, 3, CFRP, 0.
** SOURCE_TET=2446
*ELSET, ELSET=ELEM_451
451
*ORIENTATION, NAME=ORI_451, SYSTEM=RECTANGULAR
79.91163251, -59.09942095, 26.28643115, 80.33189090, -58.48223224, 27.48745612
3, 0.
*SHELL SECTION, ELSET=ELEM_451, COMPOSITE, ORIENTATION=ORI_451
1.25845850, 3, CFRP, 0.
** SOURCE_TET=3723
*ELSET, ELSET=ELEM_452
452
*ORIENTATION, NAME=ORI_452, SYSTEM=RECTANGULAR
51.27740480, -85.13646149, 12.55638919, 51.92441126, -84.78306529, 13.76324202
3, 0.
*SHELL SECTION, ELSET=ELEM_452, COMPOSITE, ORIENTATION=ORI_452
1.25869262, 3, CFRP, 0.
** SOURCE_TET=1571
*ELSET, ELSET=ELEM_453
453
*ORIENTATION, NAME=ORI_453, SYSTEM=RECTANGULAR
44.33811076, -88.92216354, -1.15883596, 44.97193987, -88.57669831, 0.05727031
3, 0.
*SHELL SECTION, ELSET=ELEM_453, COMPOSITE, ORIENTATION=ORI_453
1.25908434, 3, CFRP, 0.
** SOURCE_TET=4837
*ELSET, ELSET=ELEM_454
454
*ORIENTATION, NAME=ORI_454, SYSTEM=RECTANGULAR
51.23645947, -85.15860288, -14.89040552, 51.86156760, -84.81702496, -13.66870001
3, 0.
*SHELL SECTION, ELSET=ELEM_454, COMPOSITE, ORIENTATION=ORI_454
1.25932634, 3, CFRP, 0.
** SOURCE_TET=1364
*ELSET, ELSET=ELEM_455
455
*ORIENTATION, NAME=ORI_455, SYSTEM=RECTANGULAR
44.50709142, -88.85605049, 26.15851759, 45.16302638, -88.49962916, 27.35964755
3, 0.
*SHELL SECTION, ELSET=ELEM_455, COMPOSITE, ORIENTATION=ORI_455
1.25846469, 3, CFRP, 0.
** SOURCE_TET=1795
*ELSET, ELSET=ELEM_456
456
*ORIENTATION, NAME=ORI_456, SYSTEM=RECTANGULAR
63.86744130, -76.14021701, 39.68772633, 64.42968338, -75.63064882, 40.88113493
3, 0.
*SHELL SECTION, ELSET=ELEM_456, COMPOSITE, ORIENTATION=ORI_456
1.25816381, 3, CFRP, 0.
** SOURCE_TET=2639
*ELSET, ELSET=ELEM_457
457
*ORIENTATION, NAME=ORI_457, SYSTEM=RECTANGULAR
51.36571671, -85.11821821, 39.74506689, 52.03253898, -84.75308113, 40.93755293
3, 0.
*SHELL SECTION, ELSET=ELEM_457, COMPOSITE, ORIENTATION=ORI_457
1.25812888, 3, CFRP, 0.
** SOURCE_TET=4340
*ELSET, ELSET=ELEM_458
458
*ORIENTATION, NAME=ORI_458, SYSTEM=RECTANGULAR
29.83354493, -94.80802509, -1.16540207, 30.53113373, -94.61972177, 0.05029186
3, 0.
*SHELL SECTION, ELSET=ELEM_458, COMPOSITE, ORIENTATION=ORI_458
1.25908446, 3, CFRP, 0.
** SOURCE_TET=1569
*ELSET, ELSET=ELEM_459
459
*ORIENTATION, NAME=ORI_459, SYSTEM=RECTANGULAR
22.24897382, -96.84544210, 12.52981064, 22.95813169, -96.65436837, 13.73835768
3, 0.
*SHELL SECTION, ELSET=ELEM_459, COMPOSITE, ORIENTATION=ORI_459
1.25876677, 3, CFRP, 0.
** SOURCE_TET=3891
*ELSET, ELSET=ELEM_460
460
*ORIENTATION, NAME=ORI_460, SYSTEM=RECTANGULAR
30.00306120, -94.73731418, 26.13769845, 30.72356081, -94.53948441, 27.33842477
3, 0.
*SHELL SECTION, ELSET=ELEM_460, COMPOSITE, ORIENTATION=ORI_460
1.25846505, 3, CFRP, 0.
** SOURCE_TET=1694
*ELSET, ELSET=ELEM_461
461
*ORIENTATION, NAME=ORI_461, SYSTEM=RECTANGULAR
22.15929523, -96.86408684, -14.82832539, 22.84488097, -96.68157905, -13.60494357
3, 0.
*SHELL SECTION, ELSET=ELEM_461, COMPOSITE, ORIENTATION=ORI_461
1.25940621, 3, CFRP, 0.
** SOURCE_TET=1581
*ELSET, ELSET=ELEM_462
462
*ORIENTATION, NAME=ORI_462, SYSTEM=RECTANGULAR
43.97808665, -89.06812431, -29.10286873, 44.59285412, -88.74091746, -27.87201673
3, 0.
*SHELL SECTION, ELSET=ELEM_462, COMPOSITE, ORIENTATION=ORI_462
1.25974727, 3, CFRP, 0.
** SOURCE_TET=3970
*ELSET, ELSET=ELEM_463
463
*ORIENTATION, NAME=ORI_463, SYSTEM=RECTANGULAR
29.42689727, -94.95577236, -29.03562925, 30.10174155, -94.77177642, -27.80651140
3, 0.
*SHELL SECTION, ELSET=ELEM_463, COMPOSITE, ORIENTATION=ORI_463
1.25966299, 3, CFRP, 0.
** SOURCE_TET=4449
*ELSET, ELSET=ELEM_464
464
*ORIENTATION, NAME=ORI_464, SYSTEM=RECTANGULAR
6.78043809, -99.15651181, 12.51852236, 7.51511969, -99.13727380, 13.72677434
3, 0.
*SHELL SECTION, ELSET=ELEM_464, COMPOSITE, ORIENTATION=ORI_464
1.25876689, 3, CFRP, 0.
** SOURCE_TET=1540
*ELSET, ELSET=ELEM_465
465
*ORIENTATION, NAME=ORI_465, SYSTEM=RECTANGULAR
-1.07315081, -99.36305901, -1.11728517, -0.35126029, -99.34400260, 0.09865518
3, 0.
*SHELL SECTION, ELSET=ELEM_465, COMPOSITE, ORIENTATION=ORI_465
1.25908065, 3, CFRP, 0.
** SOURCE_TET=4748
*ELSET, ELSET=ELEM_466
466
*ORIENTATION, NAME=ORI_466, SYSTEM=RECTANGULAR
6.72870148, -99.16810860, -14.76922493, 7.43849309, -99.14856183, -13.54619027
3, 0.
*SHELL SECTION, ELSET=ELEM_466, COMPOSITE, ORIENTATION=ORI_466
1.25940514, 3, CFRP, 0.
** SOURCE_TET=2185
*ELSET, ELSET=ELEM_467
467
*ORIENTATION, NAME=ORI_467, SYSTEM=RECTANGULAR
-1.10359900, -99.36376959, 26.14540379, -0.35702857, -99.34413694, 27.34633974
3, 0.
*SHELL SECTION, ELSET=ELEM_467, COMPOSITE, ORIENTATION=ORI_467
1.25845981, 3, CFRP, 0.
** SOURCE_TET=3903
*ELSET, ELSET=ELEM_468
468
*ORIENTATION, NAME=ORI_468, SYSTEM=RECTANGULAR
7.96848094, -98.97042957, 40.99778739, 8.72771251, -98.92562285, 42.19007920
3, 0.
*SHELL SECTION, ELSET=ELEM_468, COMPOSITE, ORIENTATION=ORI_468
1.25813997, 3, CFRP, 0.
** SOURCE_TET=1377
*ELSET, ELSET=ELEM_469
469
*ORIENTATION, NAME=ORI_469, SYSTEM=RECTANGULAR
23.59503591, -96.57290650, 40.97902144, 24.33089543, -96.38314828, 42.17170857
3, 0.
*SHELL SECTION, ELSET=ELEM_469, COMPOSITE, ORIENTATION=ORI_469
1.25814033, 3, CFRP, 0.
** SOURCE_TET=3570
*ELSET, ELSET=ELEM_470
470
*ORIENTATION, NAME=ORI_470, SYSTEM=RECTANGULAR
-16.64328955, -97.98562302, -1.12103083, -15.93674463, -98.13649826, 0.09471213
3, 0.
*SHELL SECTION, ELSET=ELEM_470, COMPOSITE, ORIENTATION=ORI_470
1.25908065, 3, CFRP, 0.
** SOURCE_TET=2252
*ELSET, ELSET=ELEM_471
471
*ORIENTATION, NAME=ORI_471, SYSTEM=RECTANGULAR
-24.35067874, -96.34020410, 12.49874830, -23.63228898, -96.49356015, 13.70721761
3, 0.
*SHELL SECTION, ELSET=ELEM_471, COMPOSITE, ORIENTATION=ORI_471
1.25876713, 3, CFRP, 0.
** SOURCE_TET=5129
*ELSET, ELSET=ELEM_472
472
*ORIENTATION, NAME=ORI_472, SYSTEM=RECTANGULAR
-16.67051389, -97.98027878, 26.12917477, -15.93983899, -98.13637582, 27.32990284
3, 0.
*SHELL SECTION, ELSET=ELEM_472, COMPOSITE, ORIENTATION=ORI_472
1.25846016, 3, CFRP, 0.
** SOURCE_TET=2281
*ELSET, ELSET=ELEM_473
473
*ORIENTATION, NAME=ORI_473, SYSTEM=RECTANGULAR
-24.36519319, -96.33163986, -15.02314768, -23.67141661, -96.48059495, -13.79983805
3, 0.
*SHELL SECTION, ELSET=ELEM_473, COMPOSITE, ORIENTATION=ORI_473
1.25940728, 3, CFRP, 0.
** SOURCE_TET=5797
*ELSET, ELSET=ELEM_474
474
*ORIENTATION, NAME=ORI_474, SYSTEM=RECTANGULAR
-16.65914638, -97.97708792, -28.64571868, -15.97733227, -98.12307306, -27.41534562
3, 0.
*SHELL SECTION, ELSET=ELEM_474, COMPOSITE, ORIENTATION=ORI_474
1.25973928, 3, CFRP, 0.
** SOURCE_TET=2419
*ELSET, ELSET=ELEM_475
475
*ORIENTATION, NAME=ORI_475, SYSTEM=RECTANGULAR
-1.12894707, -99.37451849, -28.39533311, -0.43209511, -99.35696590, -27.16484977
3, 0.
*SHELL SECTION, ELSET=ELEM_475, COMPOSITE, ORIENTATION=ORI_475
1.25973475, 3, CFRP, 0.
** SOURCE_TET=3347
*ELSET, ELSET=ELEM_476
476
*ORIENTATION, NAME=ORI_476, SYSTEM=RECTANGULAR
-39.17330838, -91.34859330, -15.02628161, -38.53307359, -91.65492683, -13.80306488
3, 0.
*SHELL SECTION, ELSET=ELEM_476, COMPOSITE, ORIENTATION=ORI_476
1.25940728, 3, CFRP, 0.
** SOURCE_TET=2468
*ELSET, ELSET=ELEM_477
477
*ORIENTATION, NAME=ORI_477, SYSTEM=RECTANGULAR
-46.23777056, -87.95714308, -1.13121600, -45.58638619, -88.26925252, 0.08463189
3, 0.
*SHELL SECTION, ELSET=ELEM_477, COMPOSITE, ORIENTATION=ORI_477
1.25908089, 3, CFRP, 0.
** SOURCE_TET=3287
*ELSET, ELSET=ELEM_478
478
*ORIENTATION, NAME=ORI_478, SYSTEM=RECTANGULAR
-39.15651592, -91.35063629, 12.49159903, -38.49396919, -91.66820199, 13.69997971
3, 0.
*SHELL SECTION, ELSET=ELEM_478, COMPOSITE, ORIENTATION=ORI_478
1.25876725, 3, CFRP, 0.
** SOURCE_TET=3706
*ELSET, ELSET=ELEM_479
479
*ORIENTATION, NAME=ORI_479, SYSTEM=RECTANGULAR
-46.25483850, -87.95499423, -28.64966306, -45.62624329, -88.25664002, -27.41926561
3, 0.
*SHELL SECTION, ELSET=ELEM_479, COMPOSITE, ORIENTATION=ORI_479
1.25973594, 3, CFRP, 0.
** SOURCE_TET=2270
*ELSET, ELSET=ELEM_480
480
*ORIENTATION, NAME=ORI_480, SYSTEM=RECTANGULAR
-39.55901475, -91.22128278, -45.00557284, -38.94206816, -91.51369499, -43.76707697
3, 0.
*SHELL SECTION, ELSET=ELEM_480, COMPOSITE, ORIENTATION=ORI_480
1.26012659, 3, CFRP, 0.
** SOURCE_TET=1313
*ELSET, ELSET=ELEM_481
481
*ORIENTATION, NAME=ORI_481, SYSTEM=RECTANGULAR
-24.74788705, -96.19254093, -45.00468634, -24.08182892, -96.34188374, -43.76611325
3, 0.
*SHELL SECTION, ELSET=ELEM_481, COMPOSITE, ORIENTATION=ORI_481
1.26012659, 3, CFRP, 0.
** SOURCE_TET=2309
*ELSET, ELSET=ELEM_482
482
*ORIENTATION, NAME=ORI_482, SYSTEM=RECTANGULAR
-59.46087152, -79.64097962, -1.13493697, -58.90081885, -80.09707262, 0.08092494
3, 0.
*SHELL SECTION, ELSET=ELEM_482, COMPOSITE, ORIENTATION=ORI_482
1.25908089, 3, CFRP, 0.
** SOURCE_TET=3614
*ELSET, ELSET=ELEM_483
483
*ORIENTATION, NAME=ORI_483, SYSTEM=RECTANGULAR
-65.28982292, -74.95426070, -14.48655775, -64.73402099, -75.39643911, -13.26362584
3, 0.
*SHELL SECTION, ELSET=ELEM_483, COMPOSITE, ORIENTATION=ORI_483
1.25939620, 3, CFRP, 0.
** SOURCE_TET=2750
*ELSET, ELSET=ELEM_484
484
*ORIENTATION, NAME=ORI_484, SYSTEM=RECTANGULAR
-59.17717134, -79.92404460, -28.10618460, -58.63383416, -80.36139420, -26.87593664
3, 0.
*SHELL SECTION, ELSET=ELEM_484, COMPOSITE, ORIENTATION=ORI_484
1.25972605, 3, CFRP, 0.
** SOURCE_TET=3111
*ELSET, ELSET=ELEM_485
485
*ORIENTATION, NAME=ORI_485, SYSTEM=RECTANGULAR
-65.58497694, -74.65130705, 12.58134746, -65.01504010, -75.11511111, 13.78967597
3, 0.
*SHELL SECTION, ELSET=ELEM_485, COMPOSITE, ORIENTATION=ORI_485
1.25876558, 3, CFRP, 0.
** SOURCE_TET=2615
*ELSET, ELSET=ELEM_486
486
*ORIENTATION, NAME=ORI_486, SYSTEM=RECTANGULAR
-59.49802354, -79.60822563, 26.20327703, -58.91901784, -80.08016604, 27.40412034
3, 0.
*SHELL SECTION, ELSET=ELEM_486, COMPOSITE, ORIENTATION=ORI_486
1.25845981, 3, CFRP, 0.
** SOURCE_TET=2847
*ELSET, ELSET=ELEM_487
487
*ORIENTATION, NAME=ORI_487, SYSTEM=RECTANGULAR
-46.26302272, -87.94451013, 26.10979499, -45.58944040, -88.26729794, 27.31066754
3, 0.
*SHELL SECTION, ELSET=ELEM_487, COMPOSITE, ORIENTATION=ORI_487
1.25846136, 3, CFRP, 0.
** SOURCE_TET=1899
*ELSET, ELSET=ELEM_488
488
*ORIENTATION, NAME=ORI_488, SYSTEM=RECTANGULAR
-76.48797976, -63.46718660, 12.57584358, -76.04326600, -64.05189707, 13.78429024
3, 0.
*SHELL SECTION, ELSET=ELEM_488, COMPOSITE, ORIENTATION=ORI_488
1.25876570, 3, CFRP, 0.
** SOURCE_TET=3603
*ELSET, ELSET=ELEM_489
489
*ORIENTATION, NAME=ORI_489, SYSTEM=RECTANGULAR
-81.22987597, -57.23779817, -1.14334666, -80.79205789, -57.81251910, 0.07238817
3, 0.
*SHELL SECTION, ELSET=ELEM_489, COMPOSITE, ORIENTATION=ORI_489
1.25908101, 3, CFRP, 0.
** SOURCE_TET=1873
*ELSET, ELSET=ELEM_490
490
*ORIENTATION, NAME=ORI_490, SYSTEM=RECTANGULAR
-76.18971141, -63.76890820, -14.48933843, -75.76281311, -64.33628004, -13.26629018
3, 0.
*SHELL SECTION, ELSET=ELEM_490, COMPOSITE, ORIENTATION=ORI_490
1.25939631, 3, CFRP, 0.
** SOURCE_TET=4520
*ELSET, ELSET=ELEM_491
491
*ORIENTATION, NAME=ORI_491, SYSTEM=RECTANGULAR
-81.26152286, -57.19966784, 26.19182714, -80.80900081, -57.79420773, 27.39255447
3, 0.
*SHELL SECTION, ELSET=ELEM_491, COMPOSITE, ORIENTATION=ORI_491
1.25846004, 3, CFRP, 0.
** SOURCE_TET=1739
*ELSET, ELSET=ELEM_492
492
*ORIENTATION, NAME=ORI_492, SYSTEM=RECTANGULAR
-76.64903402, -63.29318231, 40.79355783, -76.19185539, -63.89989898, 41.98640425
3, 0.
*SHELL SECTION, ELSET=ELEM_492, COMPOSITE, ORIENTATION=ORI_492
1.25814772, 3, CFRP, 0.
** SOURCE_TET=2555
*ELSET, ELSET=ELEM_493
493
*ORIENTATION, NAME=ORI_493, SYSTEM=RECTANGULAR
-65.75404461, -74.48369210, 40.79939517, -65.16390676, -74.96239098, 41.99211673
3, 0.
*SHELL SECTION, ELSET=ELEM_493, COMPOSITE, ORIENTATION=ORI_493
1.25814760, 3, CFRP, 0.
** SOURCE_TET=1453
*ELSET, ELSET=ELEM_494
494
*ORIENTATION, NAME=ORI_494, SYSTEM=RECTANGULAR
-89.21126052, -43.81403231, -1.14791630, -88.92051863, -44.47502206, 0.06804493
3, 0.
*SHELL SECTION, ELSET=ELEM_494, COMPOSITE, ORIENTATION=ORI_494
1.25908101, 3, CFRP, 0.
** SOURCE_TET=3715
*ELSET, ELSET=ELEM_495
495
*ORIENTATION, NAME=ORI_495, SYSTEM=RECTANGULAR
-92.38424243, -36.60161224, 12.46706977, -92.08826558, -37.27431291, 13.67532120
3, 0.
*SHELL SECTION, ELSET=ELEM_495, COMPOSITE, ORIENTATION=ORI_495
1.25876749, 3, CFRP, 0.
** SOURCE_TET=1690
*ELSET, ELSET=ELEM_496
496
*ORIENTATION, NAME=ORI_496, SYSTEM=RECTANGULAR
-89.22365997, -43.78671187, 26.08784093, -88.92305372, -44.47028777, 27.28882382
3, 0.
*SHELL SECTION, ELSET=ELEM_496, COMPOSITE, ORIENTATION=ORI_496
1.25846171, 3, CFRP, 0.
** SOURCE_TET=4200
*ELSET, ELSET=ELEM_497
497
*ORIENTATION, NAME=ORI_497, SYSTEM=RECTANGULAR
-92.37271353, -36.62835959, -14.76784657, -92.08666570, -37.27838255, -13.54488018
3, 0.
*SHELL SECTION, ELSET=ELEM_497, COMPOSITE, ORIENTATION=ORI_497
1.25940251, 3, CFRP, 0.
** SOURCE_TET=1470
*ELSET, ELSET=ELEM_498
498
*ORIENTATION, NAME=ORI_498, SYSTEM=RECTANGULAR
-88.90169243, -44.31885354, -28.55408922, -88.62655057, -44.95949710, -27.32369385
3, 0.
*SHELL SECTION, ELSET=ELEM_498, COMPOSITE, ORIENTATION=ORI_498
1.25973344, 3, CFRP, 0.
** SOURCE_TET=3631
*ELSET, ELSET=ELEM_499
499
*ORIENTATION, NAME=ORI_499, SYSTEM=RECTANGULAR
-80.66419589, -58.01384752, -28.28039998, -80.22913069, -58.55940047, -27.05032264
3, 0.
*SHELL SECTION, ELSET=ELEM_499, COMPOSITE, ORIENTATION=ORI_499
1.25972843, 3, CFRP, 0.
** SOURCE_TET=1411
*ELSET, ELSET=ELEM_500
500
*ORIENTATION, NAME=ORI_500, SYSTEM=RECTANGULAR
-96.99038825, -21.70910160, -14.77174508, -96.86474780, -22.40748439, -13.54843975
3, 0.
*SHELL SECTION, ELSET=ELEM_500, COMPOSITE, ORIENTATION=ORI_500
1.25940263, 3, CFRP, 0.
** SOURCE_TET=3279
*ELSET, ELSET=ELEM_501
501
*ORIENTATION, NAME=ORI_501, SYSTEM=RECTANGULAR
-98.38536299, -13.95640990, -1.15734701, -98.25735237, -14.66769172, 0.05825632
3, 0.
*SHELL SECTION, ELSET=ELEM_501, COMPOSITE, ORIENTATION=ORI_501
1.25908113, 3, CFRP, 0.
** SOURCE_TET=1270
*ELSET, ELSET=ELEM_502
502
*ORIENTATION, NAME=ORI_502, SYSTEM=RECTANGULAR
-96.99574776, -21.68148068, 12.46188720, -96.86580039, -22.40429177, 13.67046398
3, 0.
*SHELL SECTION, ELSET=ELEM_502, COMPOSITE, ORIENTATION=ORI_502
1.25876760, 3, CFRP, 0.
** SOURCE_TET=3494
*ELSET, ELSET=ELEM_503
503
*ORIENTATION, NAME=ORI_503, SYSTEM=RECTANGULAR
-98.38108141, -13.98029847, -28.39022167, -98.25748272, -14.66708980, -27.16016434
3, 0.
*SHELL SECTION, ELSET=ELEM_503, COMPOSITE, ORIENTATION=ORI_503
1.25973189, 3, CFRP, 0.
** SOURCE_TET=2018
*ELSET, ELSET=ELEM_504
504
*ORIENTATION, NAME=ORI_504, SYSTEM=RECTANGULAR
-97.09061098, -21.39956421, -41.91708579, -96.96567407, -22.07267382, -40.67962298
3, 0.
*SHELL SECTION, ELSET=ELEM_504, COMPOSITE, ORIENTATION=ORI_504
1.26006675, 3, CFRP, 0.
** SOURCE_TET=3588
*ELSET, ELSET=ELEM_505
505
*ORIENTATION, NAME=ORI_505, SYSTEM=RECTANGULAR
-92.16511829, -36.80146537, -42.08452557, -91.89254930, -37.42648237, -40.84555023
3, 0.
*SHELL SECTION, ELSET=ELEM_505, COMPOSITE, ORIENTATION=ORI_505
1.26013649, 3, CFRP, 0.
** SOURCE_TET=1251
*ELSET, ELSET=ELEM_506
506
*ORIENTATION, NAME=ORI_506, SYSTEM=RECTANGULAR
-99.37663263, 1.62765608, -1.16137006, -99.41883264, 0.90691888, 0.05467148
3, 0.
*SHELL SECTION, ELSET=ELEM_506, COMPOSITE, ORIENTATION=ORI_506
1.25908124, 3, CFRP, 0.
** SOURCE_TET=3546
*ELSET, ELSET=ELEM_507
507
*ORIENTATION, NAME=ORI_507, SYSTEM=RECTANGULAR
-98.91847184, 9.46138760, -14.77583492, -98.95966977, 8.75630044, -13.55061869
3, 0.
*SHELL SECTION, ELSET=ELEM_507, COMPOSITE, ORIENTATION=ORI_507
1.25948441, 3, CFRP, 0.
** SOURCE_TET=1260
*ELSET, ELSET=ELEM_508
508
*ORIENTATION, NAME=ORI_508, SYSTEM=RECTANGULAR
-99.37791677, 1.60391783, -28.39066245, -99.41859016, 0.90808063, -27.16015188
3, 0.
*SHELL SECTION, ELSET=ELEM_508, COMPOSITE, ORIENTATION=ORI_508
1.25973189, 3, CFRP, 0.
** SOURCE_TET=3583
*ELSET, ELSET=ELEM_509
509
*ORIENTATION, NAME=ORI_509, SYSTEM=RECTANGULAR
-98.91675398, 9.48789007, 12.45291893, -98.95943413, 8.75800525, 13.66347523
3, 0.
*SHELL SECTION, ELSET=ELEM_509, COMPOSITE, ORIENTATION=ORI_509
1.25884581, 3, CFRP, 0.
** SOURCE_TET=1287
*ELSET, ELSET=ELEM_510
510
*ORIENTATION, NAME=ORI_510, SYSTEM=RECTANGULAR
-99.37534023, 1.65581085, 26.07006605, -99.41904988, 0.91046531, 27.27112787
3, 0.
*SHELL SECTION, ELSET=ELEM_510, COMPOSITE, ORIENTATION=ORI_510
1.25846195, 3, CFRP, 0.
** SOURCE_TET=3334
*ELSET, ELSET=ELEM_511
511
*ORIENTATION, NAME=ORI_511, SYSTEM=RECTANGULAR
-98.39033886, -13.92767163, 26.07537842, -98.25803988, -14.66316675, 27.27602154
3, 0.
*SHELL SECTION, ELSET=ELEM_511, COMPOSITE, ORIENTATION=ORI_511
1.25846183, 3, CFRP, 0.
** SOURCE_TET=1386
*ELSET, ELSET=ELEM_512
512
*ORIENTATION, NAME=ORI_512, SYSTEM=RECTANGULAR
-96.22712760, 24.87213132, 12.44752394, -96.44057671, 24.16955568, 13.65617069
3, 0.
*SHELL SECTION, ELSET=ELEM_512, COMPOSITE, ORIENTATION=ORI_512
1.25876784, 3, CFRP, 0.
** SOURCE_TET=3693
*ELSET, ELSET=ELEM_513
513
*ORIENTATION, NAME=ORI_513, SYSTEM=RECTANGULAR
-93.94747048, 32.37847005, -1.16933813, -94.15628325, 31.69068945, 0.04859252
3, 0.
*SHELL SECTION, ELSET=ELEM_513, COMPOSITE, ORIENTATION=ORI_513
1.25916135, 3, CFRP, 0.
** SOURCE_TET=1389
*ELSET, ELSET=ELEM_514
514
*ORIENTATION, NAME=ORI_514, SYSTEM=RECTANGULAR
-96.23509532, 24.84563282, -14.78035206, -96.44125596, 24.16677313, -13.55697668
3, 0.
*SHELL SECTION, ELSET=ELEM_514, COMPOSITE, ORIENTATION=ORI_514
1.25940275, 3, CFRP, 0.
** SOURCE_TET=3843
*ELSET, ELSET=ELEM_515
515
*ORIENTATION, NAME=ORI_515, SYSTEM=RECTANGULAR
-93.95908626, 32.35742796, 25.96325536, -94.17564555, 31.64625861, 27.16630990
3, 0.
*SHELL SECTION, ELSET=ELEM_515, COMPOSITE, ORIENTATION=ORI_515
1.25853980, 3, CFRP, 0.
** SOURCE_TET=3933
*ELSET, ELSET=ELEM_516
516
*ORIENTATION, NAME=ORI_516, SYSTEM=RECTANGULAR
-98.91480014, 9.51638847, 39.68362900, -98.95897978, 8.76200368, 40.87901669
3, 0.
*SHELL SECTION, ELSET=ELEM_516, COMPOSITE, ORIENTATION=ORI_516
1.25823808, 3, CFRP, 0.
** SOURCE_TET=1562
*ELSET, ELSET=ELEM_517
517
*ORIENTATION, NAME=ORI_517, SYSTEM=RECTANGULAR
-96.24026227, 24.85082083, 39.58042446, -96.46029927, 24.12471378, 40.77388676
3, 0.
*SHELL SECTION, ELSET=ELEM_517, COMPOSITE, ORIENTATION=ORI_517
1.25816560, 3, CFRP, 0.
** SOURCE_TET=1703
*ELSET, ELSET=ELEM_518
518
*ORIENTATION, NAME=ORI_518, SYSTEM=RECTANGULAR
-87.73244085, 46.70531452, -1.17480383, -88.09819838, 46.08296733, 0.04129872
3, 0.
*SHELL SECTION, ELSET=ELEM_518, COMPOSITE, ORIENTATION=ORI_518
1.25908136, 3, CFRP, 0.
** SOURCE_TET=3703
*ELSET, ELSET=ELEM_519
519
*ORIENTATION, NAME=ORI_519, SYSTEM=RECTANGULAR
-83.74302119, 53.49456479, 12.43833567, -84.11345133, 52.86412664, 13.64884352
3, 0.
*SHELL SECTION, ELSET=ELEM_519, COMPOSITE, ORIENTATION=ORI_519
1.25884604, 3, CFRP, 0.
** SOURCE_TET=1741
*ELSET, ELSET=ELEM_520
520
*ORIENTATION, NAME=ORI_520, SYSTEM=RECTANGULAR
-87.73960566, 46.68275169, 25.95771640, -88.11689449, 46.03865409, 27.15887893
3, 0.
*SHELL SECTION, ELSET=ELEM_520, COMPOSITE, ORIENTATION=ORI_520
1.25846374, 3, CFRP, 0.
** SOURCE_TET=3726
*ELSET, ELSET=ELEM_521
521
*ORIENTATION, NAME=ORI_521, SYSTEM=RECTANGULAR
-83.75796749, 53.46955304, -14.79108321, -84.11575851, 52.86050152, -13.56591309
3, 0.
*SHELL SECTION, ELSET=ELEM_521, COMPOSITE, ORIENTATION=ORI_521
1.25948477, 3, CFRP, 0.
** SOURCE_TET=1762
*ELSET, ELSET=ELEM_522
522
*ORIENTATION, NAME=ORI_522, SYSTEM=RECTANGULAR
-87.72846783, 46.72326165, -28.30864433, -88.08111723, 46.12208144, -27.07810756
3, 0.
*SHELL SECTION, ELSET=ELEM_522, COMPOSITE, ORIENTATION=ORI_522
1.25973034, 3, CFRP, 0.
** SOURCE_TET=3771
*ELSET, ELSET=ELEM_523
523
*ORIENTATION, NAME=ORI_523, SYSTEM=RECTANGULAR
-93.93542524, 32.39937993, -28.30278005, -94.13974599, 31.72970055, -27.07404796
3, 0.
*SHELL SECTION, ELSET=ELEM_523, COMPOSITE, ORIENTATION=ORI_523
1.25964701, 3, CFRP, 0.
** SOURCE_TET=2237
*ELSET, ELSET=ELEM_524
524
*ORIENTATION, NAME=ORI_524, SYSTEM=RECTANGULAR
-74.36137778, 65.94545583, -14.79608052, -74.85403203, 65.43504956, -13.57265205
3, 0.
*SHELL SECTION, ELSET=ELEM_524, COMPOSITE, ORIENTATION=ORI_524
1.25940299, 3, CFRP, 0.
** SOURCE_TET=3749
*ELSET, ELSET=ELEM_525
525
*ORIENTATION, NAME=ORI_525, SYSTEM=RECTANGULAR
-68.89357411, 71.61098251, -1.18327586, -69.39279334, 71.09371075, 0.03459527
3, 0.
*SHELL SECTION, ELSET=ELEM_525, COMPOSITE, ORIENTATION=ORI_525
1.25916159, 3, CFRP, 0.
** SOURCE_TET=2226
*ELSET, ELSET=ELEM_526
526
*ORIENTATION, NAME=ORI_526, SYSTEM=RECTANGULAR
-74.34293242, 65.96529086, 12.43302688, -74.85286319, 65.43706650, 13.64172438
3, 0.
*SHELL SECTION, ELSET=ELEM_526, COMPOSITE, ORIENTATION=ORI_526
1.25876796, 3, CFRP, 0.
** SOURCE_TET=3808
*ELSET, ELSET=ELEM_527
527
*ORIENTATION, NAME=ORI_527, SYSTEM=RECTANGULAR
-68.90967837, 71.59480381, -28.41293517, -69.39585544, 71.09090952, -27.18422756
3, 0.
*SHELL SECTION, ELSET=ELEM_527, COMPOSITE, ORIENTATION=ORI_527
1.25964892, 3, CFRP, 0.
** SOURCE_TET=2510
*ELSET, ELSET=ELEM_528
528
*ORIENTATION, NAME=ORI_528, SYSTEM=RECTANGULAR
-74.38090628, 65.92506321, -42.02434648, -74.85607063, 65.43267526, -40.78669833
3, 0.
*SHELL SECTION, ELSET=ELEM_528, COMPOSITE, ORIENTATION=ORI_528
1.26007020, 3, CFRP, 0.
** SOURCE_TET=4063
*ELSET, ELSET=ELEM_529
529
*ORIENTATION, NAME=ORI_529, SYSTEM=RECTANGULAR
-83.75082211, 53.49324528, -41.92586171, -84.09949635, 52.90056867, -40.69007827
3, 0.
*SHELL SECTION, ELSET=ELEM_529, COMPOSITE, ORIENTATION=ORI_529
1.25998247, 3, CFRP, 0.
** SOURCE_TET=2930
*ELSET, ELSET=ELEM_530
530
*ORIENTATION, NAME=ORI_530, SYSTEM=RECTANGULAR
-56.83554814, 81.53590724, -1.18778185, -57.44452539, 81.14842969, 0.02836282
3, 0.
*SHELL SECTION, ELSET=ELEM_530, COMPOSITE, ORIENTATION=ORI_530
1.25908160, 3, CFRP, 0.
** SOURCE_TET=4394
*ELSET, ELSET=ELEM_531
531
*ORIENTATION, NAME=ORI_531, SYSTEM=RECTANGULAR
-50.31109097, 85.70434191, -14.90915652, -50.91111208, 85.31975472, -13.68765443
3, 0.
*SHELL SECTION, ELSET=ELEM_531, COMPOSITE, ORIENTATION=ORI_531
1.25932336, 3, CFRP, 0.
** SOURCE_TET=4252
*ELSET, ELSET=ELEM_532
532
*ORIENTATION, NAME=ORI_532, SYSTEM=RECTANGULAR
-56.95739120, 81.47248476, -28.52062666, -57.54446405, 81.09756498, -27.28986242
3, 0.
*SHELL SECTION, ELSET=ELEM_532, COMPOSITE, ORIENTATION=ORI_532
1.25973916, 3, CFRP, 0.
** SOURCE_TET=4358
*ELSET, ELSET=ELEM_533
533
*ORIENTATION, NAME=ORI_533, SYSTEM=RECTANGULAR
-50.24391702, 85.73706564, 12.58141582, -50.86130141, 85.34486174, 13.79179287
3, 0.
*SHELL SECTION, ELSET=ELEM_533, COMPOSITE, ORIENTATION=ORI_533
1.25884354, 3, CFRP, 0.
** SOURCE_TET=3647
*ELSET, ELSET=ELEM_534
534
*ORIENTATION, NAME=ORI_534, SYSTEM=RECTANGULAR
-56.86410773, 81.52560386, 26.19725281, -57.49368153, 81.12434915, 27.39834876
3, 0.
*SHELL SECTION, ELSET=ELEM_534, COMPOSITE, ORIENTATION=ORI_534
1.25845969, 3, CFRP, 0.
** SOURCE_TET=3793
*ELSET, ELSET=ELEM_535
535
*ORIENTATION, NAME=ORI_535, SYSTEM=RECTANGULAR
-68.87467384, 71.63043431, 26.04607031, -69.39106914, 71.09542857, 27.24902697
3, 0.
*SHELL SECTION, ELSET=ELEM_535, COMPOSITE, ORIENTATION=ORI_535
1.25853837, 3, CFRP, 0.
** SOURCE_TET=4055
*ELSET, ELSET=ELEM_536
536
*ORIENTATION, NAME=ORI_536, SYSTEM=RECTANGULAR
-36.09572807, 92.58199755, 12.74643421, -36.79040514, 92.34381955, 13.95502637
3, 0.
*SHELL SECTION, ELSET=ELEM_536, COMPOSITE, ORIENTATION=ORI_536
1.25876260, 3, CFRP, 0.
** SOURCE_TET=4625
*ELSET, ELSET=ELEM_537
537
*ORIENTATION, NAME=ORI_537, SYSTEM=RECTANGULAR
-28.54114021, 95.16820149, -1.15804791, -29.22153384, 94.93562711, 0.05972615
3, 0.
*SHELL SECTION, ELSET=ELEM_537, COMPOSITE, ORIENTATION=ORI_537
1.25916111, 3, CFRP, 0.
** SOURCE_TET=4290
*ELSET, ELSET=ELEM_538
538
*ORIENTATION, NAME=ORI_538, SYSTEM=RECTANGULAR
-36.18787850, 92.54341426, -15.04484517, -36.85937839, 92.31536152, -13.82129302
3, 0.
*SHELL SECTION, ELSET=ELEM_538, COMPOSITE, ORIENTATION=ORI_538
1.25940740, 3, CFRP, 0.
** SOURCE_TET=6233
*ELSET, ELSET=ELEM_539
539
*ORIENTATION, NAME=ORI_539, SYSTEM=RECTANGULAR
-64.27644519, -75.96463484, -39.31273517, -63.72287203, -76.37575610, -38.07801412
3, 0.
*SHELL SECTION, ELSET=ELEM_539, COMPOSITE, ORIENTATION=ORI_539
1.25993311, 3, CFRP, 0.
** SOURCE_TET=4807
*ELSET, ELSET=ELEM_540
540
*ORIENTATION, NAME=ORI_540, SYSTEM=RECTANGULAR
-48.21485348, -86.72409297, -57.20036376, -47.64459638, -87.06118728, -55.95089417
3, 0.
*SHELL SECTION, ELSET=ELEM_540, COMPOSITE, ORIENTATION=ORI_540
1.26068056, 3, CFRP, 0.
** SOURCE_TET=6609
*ELSET, ELSET=ELEM_541
541
*ORIENTATION, NAME=ORI_541, SYSTEM=RECTANGULAR
-60.05765558, -79.57241109, -52.05213934, -59.51693246, -79.97027806, -50.80742235
3, 0.
*SHELL SECTION, ELSET=ELEM_541, COMPOSITE, ORIENTATION=ORI_541
1.26042640, 3, CFRP, 0.
** SOURCE_TET=3456
*ELSET, ELSET=ELEM_542
542
*ORIENTATION, NAME=ORI_542, SYSTEM=RECTANGULAR
-28.07345555, 95.25997410, 27.58536302, -28.78250172, 95.01263559, 28.78372740
3, 0.
*SHELL SECTION, ELSET=ELEM_542, COMPOSITE, ORIENTATION=ORI_542
1.25836110, 3, CFRP, 0.
** SOURCE_TET=5757
*ELSET, ELSET=ELEM_543
543
*ORIENTATION, NAME=ORI_543, SYSTEM=RECTANGULAR
-50.05092477, 85.83723241, 39.88492875, -50.68708222, 85.42873473, 41.08009959
3, 0.
*SHELL SECTION, ELSET=ELEM_543, COMPOSITE, ORIENTATION=ORI_543
1.25823462, 3, CFRP, 0.
** SOURCE_TET=4121
*ELSET, ELSET=ELEM_544
544
*ORIENTATION, NAME=ORI_544, SYSTEM=RECTANGULAR
-35.42669621, 92.76752250, 41.10757440, -36.14910041, 92.53252061, 42.30043075
3, 0.
*SHELL SECTION, ELSET=ELEM_544, COMPOSITE, ORIENTATION=ORI_544
1.25814068, 3, CFRP, 0.
** SOURCE_TET=4799
*ELSET, ELSET=ELEM_545
545
*ORIENTATION, NAME=ORI_545, SYSTEM=RECTANGULAR
-13.28792602, 98.51226311, -1.16350085, -14.00665824, 98.44592121, 0.05264995
3, 0.
*SHELL SECTION, ELSET=ELEM_545, COMPOSITE, ORIENTATION=ORI_545
1.25908113, 3, CFRP, 0.
** SOURCE_TET=7387
*ELSET, ELSET=ELEM_546
546
*ORIENTATION, NAME=ORI_546, SYSTEM=RECTANGULAR
-4.78482611, 99.21760333, 12.61907879, -5.51267941, 99.14250470, 13.82928116
3, 0.
*SHELL SECTION, ELSET=ELEM_546, COMPOSITE, ORIENTATION=ORI_546
1.25884283, 3, CFRP, 0.
** SOURCE_TET=3712
*ELSET, ELSET=ELEM_547
547
*ORIENTATION, NAME=ORI_547, SYSTEM=RECTANGULAR
-12.02277964, 98.58652687, 27.46296773, -12.76846317, 98.53528957, 28.66352211
3, 0.
*SHELL SECTION, ELSET=ELEM_547, COMPOSITE, ORIENTATION=ORI_547
1.25843859, 3, CFRP, 0.
** SOURCE_TET=5842
*ELSET, ELSET=ELEM_548
548
*ORIENTATION, NAME=ORI_548, SYSTEM=RECTANGULAR
-5.58126293, 99.22684015, -14.96777215, -6.28471042, 99.16134732, -13.74267121
3, 0.
*SHELL SECTION, ELSET=ELEM_548, COMPOSITE, ORIENTATION=ORI_548
1.25948834, 3, CFRP, 0.
** SOURCE_TET=5210
*ELSET, ELSET=ELEM_549
549
*ORIENTATION, NAME=ORI_549, SYSTEM=RECTANGULAR
-13.13188344, 98.55139933, -29.96248104, -13.82443244, 98.48503675, -28.73123294
3, 0.
*SHELL SECTION, ELSET=ELEM_549, COMPOSITE, ORIENTATION=ORI_549
1.25976121, 3, CFRP, 0.
** SOURCE_TET=3453
*ELSET, ELSET=ELEM_550
550
*ORIENTATION, NAME=ORI_550, SYSTEM=RECTANGULAR
-28.47842474, 95.14823210, -30.04327389, -29.13508653, 94.92699841, -28.81045154
3, 0.
*SHELL SECTION, ELSET=ELEM_550, COMPOSITE, ORIENTATION=ORI_550
1.25984669, 3, CFRP, 0.
** SOURCE_TET=7338
*ELSET, ELSET=ELEM_551
551
*ORIENTATION, NAME=ORI_551, SYSTEM=RECTANGULAR
11.02283824, 98.77298423, 12.31341489, 10.30154045, 98.89546573, 13.52367428
3, 0.
*SHELL SECTION, ELSET=ELEM_551, COMPOSITE, ORIENTATION=ORI_551
1.25884795, 3, CFRP, 0.
** SOURCE_TET=3483
*ELSET, ELSET=ELEM_552
552
*ORIENTATION, NAME=ORI_552, SYSTEM=RECTANGULAR
18.08433024, 97.68555542, -1.36692080, 17.37218617, 97.78519276, -0.14916745
3, 0.
*SHELL SECTION, ELSET=ELEM_552, COMPOSITE, ORIENTATION=ORI_552
1.25916529, 3, CFRP, 0.
** SOURCE_TET=4544
*ELSET, ELSET=ELEM_553
553
*ORIENTATION, NAME=ORI_553, SYSTEM=RECTANGULAR
9.98836719, 98.88065933, -14.86665933, 9.28636961, 98.98184931, -13.64315617
3, 0.
*SHELL SECTION, ELSET=ELEM_553, COMPOSITE, ORIENTATION=ORI_553
1.25940466, 3, CFRP, 0.
** SOURCE_TET=5350
*ELSET, ELSET=ELEM_554
554
*ORIENTATION, NAME=ORI_554, SYSTEM=RECTANGULAR
19.15358383, 97.57433140, 25.47682021, 18.41943729, 97.69124680, 26.67988282
3, 0.
*SHELL SECTION, ELSET=ELEM_554, COMPOSITE, ORIENTATION=ORI_554
1.25854778, 3, CFRP, 0.
** SOURCE_TET=5813
*ELSET, ELSET=ELEM_555
555
*ORIENTATION, NAME=ORI_555, SYSTEM=RECTANGULAR
-3.58227603, 99.28362662, 40.93123882, -4.33703235, 99.22815304, 42.12592102
3, 0.
*SHELL SECTION, ELSET=ELEM_555, COMPOSITE, ORIENTATION=ORI_555
1.25821757, 3, CFRP, 0.
** SOURCE_TET=5385
*ELSET, ELSET=ELEM_556
556
*ORIENTATION, NAME=ORI_556, SYSTEM=RECTANGULAR
11.79251484, 98.74560517, 39.24974066, 11.04361173, 98.86485923, 40.44344188
3, 0.
*SHELL SECTION, ELSET=ELEM_556, COMPOSITE, ORIENTATION=ORI_556
1.25817180, 3, CFRP, 0.
** SOURCE_TET=4046
*ELSET, ELSET=ELEM_557
557
*ORIENTATION, NAME=ORI_557, SYSTEM=RECTANGULAR
33.28069611, 93.65908548, -1.40833831, 32.61548949, 93.93185693, -0.19051407
3, 0.
*SHELL SECTION, ELSET=ELEM_557, COMPOSITE, ORIENTATION=ORI_557
1.25916600, 3, CFRP, 0.
** SOURCE_TET=4583
*ELSET, ELSET=ELEM_558
558
*ORIENTATION, NAME=ORI_558, SYSTEM=RECTANGULAR
40.65836080, 90.70658609, 12.19178181, 39.97814900, 90.98235535, 13.40060902
3, 0.
*SHELL SECTION, ELSET=ELEM_558, COMPOSITE, ORIENTATION=ORI_558
1.25877190, 3, CFRP, 0.
** SOURCE_TET=5411
*ELSET, ELSET=ELEM_559
559
*ORIENTATION, NAME=ORI_559, SYSTEM=RECTANGULAR
33.60196914, 93.57196497, 25.39716817, 32.91342490, 93.85207971, 26.60026524
3, 0.
*SHELL SECTION, ELSET=ELEM_559, COMPOSITE, ORIENTATION=ORI_559
1.25854909, 3, CFRP, 0.
** SOURCE_TET=4440
*ELSET, ELSET=ELEM_560
560
*ORIENTATION, NAME=ORI_560, SYSTEM=RECTANGULAR
40.30926880, 90.82256225, -14.92594876, 39.65034538, 91.08487814, -13.70242504
3, 0.
*SHELL SECTION, ELSET=ELEM_560, COMPOSITE, ORIENTATION=ORI_560
1.25940573, 3, CFRP, 0.
** SOURCE_TET=5026
*ELSET, ELSET=ELEM_561
561
*ORIENTATION, NAME=ORI_561, SYSTEM=RECTANGULAR
32.90144541, 93.78416708, -28.53152041, 32.25122752, 94.04432260, -27.30288873
3, 0.
*SHELL SECTION, ELSET=ELEM_561, COMPOSITE, ORIENTATION=ORI_561
1.25965154, 3, CFRP, 0.
** SOURCE_TET=5246
*ELSET, ELSET=ELEM_562
562
*ORIENTATION, NAME=ORI_562, SYSTEM=RECTANGULAR
17.76365641, 97.76570555, -28.51368959, 17.07023829, 97.86469815, -27.28512466
3, 0.
*SHELL SECTION, ELSET=ELEM_562, COMPOSITE, ORIENTATION=ORI_562
1.25965118, 3, CFRP, 0.
** SOURCE_TET=4427
*ELSET, ELSET=ELEM_563
563
*ORIENTATION, NAME=ORI_563, SYSTEM=RECTANGULAR
54.15148863, 83.35182575, 12.31901628, 53.55539818, 83.77550594, 13.52945888
3, 0.
*SHELL SECTION, ELSET=ELEM_563, COMPOSITE, ORIENTATION=ORI_563
1.25884783, 3, CFRP, 0.
** SOURCE_TET=4815
*ELSET, ELSET=ELEM_564
564
*ORIENTATION, NAME=ORI_564, SYSTEM=RECTANGULAR
53.87952905, 83.56608707, -14.87956059, 53.30259188, 83.97377681, -13.65443505
3, 0.
*SHELL SECTION, ELSET=ELEM_564, COMPOSITE, ORIENTATION=ORI_564
1.25948751, 3, CFRP, 0.
** SOURCE_TET=3660
*ELSET, ELSET=ELEM_565
565
*ORIENTATION, NAME=ORI_565, SYSTEM=RECTANGULAR
60.32617956, 79.00145437, -1.23639942, 59.73483949, 79.41528883, -0.02023415
3, 0.
*SHELL SECTION, ELSET=ELEM_565, COMPOSITE, ORIENTATION=ORI_565
1.25908232, 3, CFRP, 0.
** SOURCE_TET=4176
*ELSET, ELSET=ELEM_566
566
*ORIENTATION, NAME=ORI_566, SYSTEM=RECTANGULAR
60.59282214, 78.76349254, 25.92020388, 59.98394671, 79.19517824, 27.12141917
3, 0.
*SHELL SECTION, ELSET=ELEM_566, COMPOSITE, ORIENTATION=ORI_566
1.25846410, 3, CFRP, 0.
** SOURCE_TET=4573
*ELSET, ELSET=ELEM_567
567
*ORIENTATION, NAME=ORI_567, SYSTEM=RECTANGULAR
54.49122185, 83.13568135, 40.64889952, 53.87329544, 83.58264379, 41.83986195
3, 0.
*SHELL SECTION, ELSET=ELEM_567, COMPOSITE, ORIENTATION=ORI_567
1.25807643, 3, CFRP, 0.
** SOURCE_TET=4564
*ELSET, ELSET=ELEM_568
568
*ORIENTATION, NAME=ORI_568, SYSTEM=RECTANGULAR
40.97357585, 90.54972979, 40.25264843, 40.26937211, 90.83295042, 41.44591419
3, 0.
*SHELL SECTION, ELSET=ELEM_568, COMPOSITE, ORIENTATION=ORI_568
1.25815558, 3, CFRP, 0.
** SOURCE_TET=4761
*ELSET, ELSET=ELEM_569
569
*ORIENTATION, NAME=ORI_569, SYSTEM=RECTANGULAR
40.06778258, 90.94041811, -43.25288519, 39.43232474, 91.19107101, -42.01459344
3, 0.
*SHELL SECTION, ELSET=ELEM_569, COMPOSITE, ORIENTATION=ORI_569
1.26009977, 3, CFRP, 0.
** SOURCE_TET=4248
*ELSET, ELSET=ELEM_570
570
*ORIENTATION, NAME=ORI_570, SYSTEM=RECTANGULAR
53.84174506, 83.53132369, -43.26584678, 53.28720820, 83.92570626, -42.02610840
3, 0.
*SHELL SECTION, ELSET=ELEM_570, COMPOSITE, ORIENTATION=ORI_570
1.26018322, 3, CFRP, 0.
** SOURCE_TET=4452
*ELSET, ELSET=ELEM_571
571
*ORIENTATION, NAME=ORI_571, SYSTEM=RECTANGULAR
60.21749510, 79.06453825, -28.49848309, 59.65027457, 79.46910399, -27.26779733
3, 0.
*SHELL SECTION, ELSET=ELEM_571, COMPOSITE, ORIENTATION=ORI_571
1.25973511, 3, CFRP, 0.
** SOURCE_TET=4388
*ELSET, ELSET=ELEM_572
572
*ORIENTATION, NAME=ORI_572, SYSTEM=RECTANGULAR
72.16848593, 68.34133749, 25.96554347, 71.68118302, 68.90299173, 27.16849002
3, 0.
*SHELL SECTION, ELSET=ELEM_572, COMPOSITE, ORIENTATION=ORI_572
1.25853944, 3, CFRP, 0.
** SOURCE_TET=2839
*ELSET, ELSET=ELEM_573
573
*ORIENTATION, NAME=ORI_573, SYSTEM=RECTANGULAR
76.99198630, 62.88845035, 11.63138359, 76.50263253, 63.43509313, 12.84039747
3, 0.
*SHELL SECTION, ELSET=ELEM_573, COMPOSITE, ORIENTATION=ORI_573
1.25878131, 3, CFRP, 0.
** SOURCE_TET=4612
*ELSET, ELSET=ELEM_574
574
*ORIENTATION, NAME=ORI_574, SYSTEM=RECTANGULAR
71.61293422, 68.99574962, -1.96770704, 71.13834659, 69.53503415, -0.74953678
3, 0.
*SHELL SECTION, ELSET=ELEM_574, COMPOSITE, ORIENTATION=ORI_574
1.25917530, 3, CFRP, 0.
** SOURCE_TET=2814
*ELSET, ELSET=ELEM_575
575
*ORIENTATION, NAME=ORI_575, SYSTEM=RECTANGULAR
0.87121211, -99.20855512, 53.95115198, 1.63221578, -99.18320795, 55.14288640
3, 0.
*SHELL SECTION, ELSET=ELEM_575, COMPOSITE, ORIENTATION=ORI_575
1.25803661, 3, CFRP, 0.
** SOURCE_TET=5152
*ELSET, ELSET=ELEM_576
576
*ORIENTATION, NAME=ORI_576, SYSTEM=RECTANGULAR
-16.13653471, -97.97294627, 53.92207655, -15.38841013, -98.11508230, 55.11375896
3, 0.
*SHELL SECTION, ELSET=ELEM_576, COMPOSITE, ORIENTATION=ORI_576
1.25803626, 3, CFRP, 0.
** SOURCE_TET=1688
*ELSET, ELSET=ELEM_577
577
*ORIENTATION, NAME=ORI_577, SYSTEM=RECTANGULAR
-24.60042502, -96.26071022, 40.95254391, -23.85686820, -96.41740050, 42.14525989
3, 0.
*SHELL SECTION, ELSET=ELEM_577, COMPOSITE, ORIENTATION=ORI_577
1.25814342, 3, CFRP, 0.
** SOURCE_TET=3401
*ELSET, ELSET=ELEM_578
578
*ORIENTATION, NAME=ORI_578, SYSTEM=RECTANGULAR
-56.62590112, 81.64338017, 53.34699666, -57.26854753, 81.23720583, 54.53948481
3, 0.
*SHELL SECTION, ELSET=ELEM_578, COMPOSITE, ORIENTATION=ORI_578
1.25804484, 3, CFRP, 0.
** SOURCE_TET=2683
*ELSET, ELSET=ELEM_579
579
*ORIENTATION, NAME=ORI_579, SYSTEM=RECTANGULAR
-68.98950220, 71.47254149, 53.04203944, -69.51476186, 70.92490936, 54.23543851
3, 0.
*SHELL SECTION, ELSET=ELEM_579, COMPOSITE, ORIENTATION=ORI_579
1.25806403, 3, CFRP, 0.
** SOURCE_TET=2421
*ELSET, ELSET=ELEM_580
580
*ORIENTATION, NAME=ORI_580, SYSTEM=RECTANGULAR
-74.45514510, 65.81567676, 39.42750708, -74.97855442, 65.26674070, 40.62112003
3, 0.
*SHELL SECTION, ELSET=ELEM_580, COMPOSITE, ORIENTATION=ORI_580
1.25816989, 3, CFRP, 0.
** SOURCE_TET=3864
*ELSET, ELSET=ELEM_581
581
*ORIENTATION, NAME=ORI_581, SYSTEM=RECTANGULAR
-98.88264521, 9.63702152, -41.76681384, -98.92706099, 8.95080606, -40.53104057
3, 0.
*SHELL SECTION, ELSET=ELEM_581, COMPOSITE, ORIENTATION=ORI_581
1.25997949, 3, CFRP, 0.
** SOURCE_TET=1440
*ELSET, ELSET=ELEM_582
582
*ORIENTATION, NAME=ORI_582, SYSTEM=RECTANGULAR
-99.34538487, 1.77135264, -55.38102337, -99.38615565, 1.10719553, -54.13313192
3, 0.
*SHELL SECTION, ELSET=ELEM_582, COMPOSITE, ORIENTATION=ORI_582
1.26057851, 3, CFRP, 0.
** SOURCE_TET=5421
*ELSET, ELSET=ELEM_583
583
*ORIENTATION, NAME=ORI_583, SYSTEM=RECTANGULAR
-98.47659324, -13.67876633, -55.53099230, -98.36331254, -14.32753609, -54.27948709
3, 0.
*SHELL SECTION, ELSET=ELEM_583, COMPOSITE, ORIENTATION=ORI_583
1.26075482, 3, CFRP, 0.
** SOURCE_TET=5250
*ELSET, ELSET=ELEM_584
584
*ORIENTATION, NAME=ORI_584, SYSTEM=RECTANGULAR
-92.39684866, -36.57082794, 39.69675171, -92.09107263, -37.26592033, 40.88979303
3, 0.
*SHELL SECTION, ELSET=ELEM_584, COMPOSITE, ORIENTATION=ORI_584
1.25816369, 3, CFRP, 0.
** SOURCE_TET=1269
*ELSET, ELSET=ELEM_585
585
*ORIENTATION, NAME=ORI_585, SYSTEM=RECTANGULAR
-89.02054603, -44.12873550, 54.56095738, -88.70710657, -44.82165055, 55.75327632
3, 0.
*SHELL SECTION, ELSET=ELEM_585, COMPOSITE, ORIENTATION=ORI_585
1.25804460, 3, CFRP, 0.
** SOURCE_TET=3624
*ELSET, ELSET=ELEM_586
586
*ORIENTATION, NAME=ORI_586, SYSTEM=RECTANGULAR
-81.18286273, -57.40823417, 55.55387621, -80.72679900, -58.01595087, 56.74664034
3, 0.
*SHELL SECTION, ELSET=ELEM_586, COMPOSITE, ORIENTATION=ORI_586
1.25805652, 3, CFRP, 0.
** SOURCE_TET=5409
*ELSET, ELSET=ELEM_587
587
*ORIENTATION, NAME=ORI_587, SYSTEM=RECTANGULAR
6.24335640, -99.24223665, -42.86040635, 6.92682546, -99.22086946, -41.62249945
3, 0.
*SHELL SECTION, ELSET=ELEM_587, COMPOSITE, ORIENTATION=ORI_587
1.26010621, 3, CFRP, 0.
** SOURCE_TET=3969
*ELSET, ELSET=ELEM_588
588
*ORIENTATION, NAME=ORI_588, SYSTEM=RECTANGULAR
-1.47977829, -99.43955147, -55.42076533, -0.81497260, -99.42589628, -54.17262794
3, 0.
*SHELL SECTION, ELSET=ELEM_588, COMPOSITE, ORIENTATION=ORI_588
1.26059270, 3, CFRP, 0.
** SOURCE_TET=5398
*ELSET, ELSET=ELEM_589
589
*ORIENTATION, NAME=ORI_589, SYSTEM=RECTANGULAR
-16.94660044, -97.86056887, -57.31427569, -16.30020461, -98.00343999, -56.06457162
3, 0.
*SHELL SECTION, ELSET=ELEM_589, COMPOSITE, ORIENTATION=ORI_589
1.26068676, 3, CFRP, 0.
** SOURCE_TET=3002
*ELSET, ELSET=ELEM_590
590
*ORIENTATION, NAME=ORI_590, SYSTEM=RECTANGULAR
80.13785938, -58.74236615, -55.84075650, 80.50946934, -58.19437689, -54.59111103
3, 0.
*SHELL SECTION, ELSET=ELEM_590, COMPOSITE, ORIENTATION=ORI_590
1.26066184, 3, CFRP, 0.
** SOURCE_TET=4167
*ELSET, ELSET=ELEM_591
591
*ORIENTATION, NAME=ORI_591, SYSTEM=RECTANGULAR
69.74193994, -70.76293923, -55.98581947, 70.23903633, -70.31388336, -54.74033001
3, 0.
*SHELL SECTION, ELSET=ELEM_591, COMPOSITE, ORIENTATION=ORI_591
1.26046371, 3, CFRP, 0.
** SOURCE_TET=4671
*ELSET, ELSET=ELEM_592
592
*ORIENTATION, NAME=ORI_592, SYSTEM=RECTANGULAR
63.85914787, -76.09723842, -42.36495157, 64.36719240, -75.64081537, -41.12657814
3, 0.
*SHELL SECTION, ELSET=ELEM_592, COMPOSITE, ORIENTATION=ORI_592
1.26010466, 3, CFRP, 0.
** SOURCE_TET=1720
*ELSET, ELSET=ELEM_593
593
*ORIENTATION, NAME=ORI_593, SYSTEM=RECTANGULAR
-99.37450982, 1.67691593, 53.30268898, -99.41915349, 0.91680319, 54.49442535
3, 0.
*SHELL SECTION, ELSET=ELEM_593, COMPOSITE, ORIENTATION=ORI_593
1.25803208, 3, CFRP, 0.
** SOURCE_TET=7321
*ELSET, ELSET=ELEM_594
594
*ORIENTATION, NAME=ORI_594, SYSTEM=RECTANGULAR
-98.39487168, -13.90308818, 53.30386562, -98.26007644, -14.65310936, 54.49520876
3, 0.
*SHELL SECTION, ELSET=ELEM_594, COMPOSITE, ORIENTATION=ORI_594
1.25803208, 3, CFRP, 0.
** SOURCE_TET=1591
*ELSET, ELSET=ELEM_595
595
*ORIENTATION, NAME=ORI_595, SYSTEM=RECTANGULAR
-97.00254723, -21.64865426, 39.68976841, -96.86840501, -22.39559407, 40.88311948
3, 0.
*SHELL SECTION, ELSET=ELEM_595, COMPOSITE, ORIENTATION=ORI_595
1.25816381, 3, CFRP, 0.
** SOURCE_TET=3179
*ELSET, ELSET=ELEM_596
596
*ORIENTATION, NAME=ORI_596, SYSTEM=RECTANGULAR
-68.93817926, 71.56590456, -55.63766816, -69.39531885, 71.09206374, -54.38606988
3, 0.
*SHELL SECTION, ELSET=ELEM_596, COMPOSITE, ORIENTATION=ORI_596
1.26076365, 3, CFRP, 0.
** SOURCE_TET=4576
*ELSET, ELSET=ELEM_597
597
*ORIENTATION, NAME=ORI_597, SYSTEM=RECTANGULAR
-56.77960229, 81.55373918, -55.68760294, -57.33672957, 81.20058197, -54.43664764
3, 0.
*SHELL SECTION, ELSET=ELEM_597, COMPOSITE, ORIENTATION=ORI_597
1.26072741, 3, CFRP, 0.
** SOURCE_TET=6079
*ELSET, ELSET=ELEM_598
598
*ORIENTATION, NAME=ORI_598, SYSTEM=RECTANGULAR
-50.22249742, 85.73863219, -42.18315825, -50.80442335, 85.37271977, -40.94724955
3, 0.
*SHELL SECTION, ELSET=ELEM_598, COMPOSITE, ORIENTATION=ORI_598
1.25999224, 3, CFRP, 0.
** SOURCE_TET=6515
*ELSET, ELSET=ELEM_599
599
*ORIENTATION, NAME=ORI_599, SYSTEM=RECTANGULAR
32.67443839, 93.87865395, -55.57483235, 32.04907121, 94.12717998, -54.33098723
3, 0.
*SHELL SECTION, ELSET=ELEM_599, COMPOSITE, ORIENTATION=ORI_599
1.26038766, 3, CFRP, 0.
** SOURCE_TET=3668
*ELSET, ELSET=ELEM_600
600
*ORIENTATION, NAME=ORI_600, SYSTEM=RECTANGULAR
9.97928259, 98.89336583, -44.68192280, 9.30655132, 98.98932313, -43.44167088
3, 0.
*SHELL SECTION, ELSET=ELEM_600, COMPOSITE, ORIENTATION=ORI_600
1.26021528, 3, CFRP, 0.
** SOURCE_TET=7362
*ELSET, ELSET=ELEM_601
601
*ORIENTATION, NAME=ORI_601, SYSTEM=RECTANGULAR
17.70213481, 97.79245886, -57.01974388, 17.04772535, 97.88538662, -55.76949883
3, 0.
*SHELL SECTION, ELSET=ELEM_601, COMPOSITE, ORIENTATION=ORI_601
1.26068950, 3, CFRP, 0.
** SOURCE_TET=2619
*ELSET, ELSET=ELEM_602
602
*ORIENTATION, NAME=ORI_602, SYSTEM=RECTANGULAR
-74.08393770, 66.33045822, -68.99371166, -74.51903293, 65.87041085, -67.72917674
3, 0.
*SHELL SECTION, ELSET=ELEM_602, COMPOSITE, ORIENTATION=ORI_602
1.26144946, 3, CFRP, 0.
** SOURCE_TET=1629
*ELSET, ELSET=ELEM_603
603
*ORIENTATION, NAME=ORI_603, SYSTEM=RECTANGULAR
-83.76838395, 53.08772310, -68.69717171, -84.09193925, 52.54746937, -67.43090243
3, 0.
*SHELL SECTION, ELSET=ELEM_603, COMPOSITE, ORIENTATION=ORI_603
1.26154697, 3, CFRP, 0.
** SOURCE_TET=1889
*ELSET, ELSET=ELEM_604
604
*ORIENTATION, NAME=ORI_604, SYSTEM=RECTANGULAR
-88.04850399, 45.94202494, -55.24432132, -88.39464736, 45.37373129, -53.99643226
3, 0.
*SHELL SECTION, ELSET=ELEM_604, COMPOSITE, ORIENTATION=ORI_604
1.26057911, 3, CFRP, 0.
** SOURCE_TET=6023
*ELSET, ELSET=ELEM_605
605
*ORIENTATION, NAME=ORI_605, SYSTEM=RECTANGULAR
-99.01227233, 8.88469331, 66.67548463, -99.06237699, 8.13837623, 67.87569309
3, 0.
*SHELL SECTION, ELSET=ELEM_605, COMPOSITE, ORIENTATION=ORI_605
1.25819683, 3, CFRP, 0.
** SOURCE_TET=1245
*ELSET, ELSET=ELEM_606
606
*ORIENTATION, NAME=ORI_606, SYSTEM=RECTANGULAR
-96.04302800, 24.91881605, 66.38402461, -96.25247516, 24.20493314, 67.58673118
3, 0.
*SHELL SECTION, ELSET=ELEM_606, COMPOSITE, ORIENTATION=ORI_606
1.25824928, 3, CFRP, 0.
** SOURCE_TET=4365
*ELSET, ELSET=ELEM_607
607
*ORIENTATION, NAME=ORI_607, SYSTEM=RECTANGULAR
-93.66768255, 33.04041581, 52.90695411, -93.88249628, 32.30457139, 54.09539344
3, 0.
*SHELL SECTION, ELSET=ELEM_607, COMPOSITE, ORIENTATION=ORI_607
1.25797105, 3, CFRP, 0.
** SOURCE_TET=4227
*ELSET, ELSET=ELEM_608
608
*ORIENTATION, NAME=ORI_608, SYSTEM=RECTANGULAR
77.35885679, 62.38896024, 39.62574368, 76.86101474, 62.96131717, 40.81929336
3, 0.
*SHELL SECTION, ELSET=ELEM_608, COMPOSITE, ORIENTATION=ORI_608
1.25816667, 3, CFRP, 0.
** SOURCE_TET=6301
*ELSET, ELSET=ELEM_609
609
*ORIENTATION, NAME=ORI_609, SYSTEM=RECTANGULAR
60.74207820, 78.71455741, 53.00462153, 60.12485291, 79.16112419, 54.19609585
3, 0.
*SHELL SECTION, ELSET=ELEM_609, COMPOSITE, ORIENTATION=ORI_609
1.25802529, 3, CFRP, 0.
** SOURCE_TET=7380
*ELSET, ELSET=ELEM_610
610
*ORIENTATION, NAME=ORI_610, SYSTEM=RECTANGULAR
72.07078023, 68.43048714, 51.93623259, 71.56755662, 69.00023808, 53.12877185
3, 0.
*SHELL SECTION, ELSET=ELEM_610, COMPOSITE, ORIENTATION=ORI_610
1.25804913, 3, CFRP, 0.
** SOURCE_TET=2589
*ELSET, ELSET=ELEM_611
611
*ORIENTATION, NAME=ORI_611, SYSTEM=RECTANGULAR
-39.40305199, -91.25979426, 40.94021839, -38.71960412, -91.59223054, 42.13285628
3, 0.
*SHELL SECTION, ELSET=ELEM_611, COMPOSITE, ORIENTATION=ORI_611
1.25814366, 3, CFRP, 0.
** SOURCE_TET=5176
*ELSET, ELSET=ELEM_612
612
*ORIENTATION, NAME=ORI_612, SYSTEM=RECTANGULAR
-46.83995883, -87.65095124, 53.28505582, -46.15229061, -87.97952944, 54.47633613
3, 0.
*SHELL SECTION, ELSET=ELEM_612, COMPOSITE, ORIENTATION=ORI_612
1.25802696, 3, CFRP, 0.
** SOURCE_TET=4229
*ELSET, ELSET=ELEM_613
613
*ORIENTATION, NAME=ORI_613, SYSTEM=RECTANGULAR
-59.97597036, -79.24160021, 53.05067511, -59.39304475, -79.73295772, 54.24179456
3, 0.
*SHELL SECTION, ELSET=ELEM_613, COMPOSITE, ORIENTATION=ORI_613
1.25802410, 3, CFRP, 0.
** SOURCE_TET=2404
*ELSET, ELSET=ELEM_614
614
*ORIENTATION, NAME=ORI_614, SYSTEM=RECTANGULAR
-74.86941645, -65.25045987, -39.48350219, -74.45654559, -65.79961076, -38.24739097
3, 0.
*SHELL SECTION, ELSET=ELEM_614, COMPOSITE, ORIENTATION=ORI_614
1.26000988, 3, CFRP, 0.
** SOURCE_TET=2312
*ELSET, ELSET=ELEM_615
615
*ORIENTATION, NAME=ORI_615, SYSTEM=RECTANGULAR
-89.67924974, -42.86230202, -54.96490418, -89.38541373, -43.46291071, -53.71873822
3, 0.
*SHELL SECTION, ELSET=ELEM_615, COMPOSITE, ORIENTATION=ORI_615
1.26051021, 3, CFRP, 0.
** SOURCE_TET=6637
*ELSET, ELSET=ELEM_616
616
*ORIENTATION, NAME=ORI_616, SYSTEM=RECTANGULAR
-83.47023856, -54.45666848, -57.93912196, -83.11819827, -55.01812257, -56.68978736
3, 0.
*SHELL SECTION, ELSET=ELEM_616, COMPOSITE, ORIENTATION=ORI_616
1.26065731, 3, CFRP, 0.
** SOURCE_TET=5784
*ELSET, ELSET=ELEM_617
617
*ORIENTATION, NAME=ORI_617, SYSTEM=RECTANGULAR
-77.07982011, -62.87434826, -51.72166048, -76.60458559, -63.36059591, -50.48161396
3, 0.
*SHELL SECTION, ELSET=ELEM_617, COMPOSITE, ORIENTATION=ORI_617
1.26024091, 3, CFRP, 0.
** SOURCE_TET=6389
*ELSET, ELSET=ELEM_618
618
*ORIENTATION, NAME=ORI_618, SYSTEM=RECTANGULAR
69.13383019, -71.46702647, 51.93705863, 69.71464065, -70.96598274, 53.12517242
3, 0.
*SHELL SECTION, ELSET=ELEM_618, COMPOSITE, ORIENTATION=ORI_618
1.25796723, 3, CFRP, 0.
** SOURCE_TET=5091
*ELSET, ELSET=ELEM_619
619
*ORIENTATION, NAME=ORI_619, SYSTEM=RECTANGULAR
83.65302171, -53.80908574, 41.24163109, 84.09739368, -53.19633850, 42.43623327
3, 0.
*SHELL SECTION, ELSET=ELEM_619, COMPOSITE, ORIENTATION=ORI_619
1.25821280, 3, CFRP, 0.
** SOURCE_TET=5971
*ELSET, ELSET=ELEM_620
620
*ORIENTATION, NAME=ORI_620, SYSTEM=RECTANGULAR
78.76775887, -60.81306171, 53.32272081, 79.20494677, -60.19108796, 54.51520368
3, 0.
*SHELL SECTION, ELSET=ELEM_620, COMPOSITE, ORIENTATION=ORI_620
1.25804603, 3, CFRP, 0.
** SOURCE_TET=4570
*ELSET, ELSET=ELEM_621
621
*ORIENTATION, NAME=ORI_621, SYSTEM=RECTANGULAR
45.03620178, -88.64786043, 51.86989976, 45.70970624, -88.28421451, 53.05908157
3, 0.
*SHELL SECTION, ELSET=ELEM_621, COMPOSITE, ORIENTATION=ORI_621
1.25798368, 3, CFRP, 0.
** SOURCE_TET=2920
*ELSET, ELSET=ELEM_622
622
*ORIENTATION, NAME=ORI_622, SYSTEM=RECTANGULAR
51.70799227, -85.00314416, 67.05972536, 52.35890153, -84.64129048, 68.26196454
3, 0.
*SHELL SECTION, ELSET=ELEM_622, COMPOSITE, ORIENTATION=ORI_622
1.25824249, 3, CFRP, 0.
** SOURCE_TET=2074
*ELSET, ELSET=ELEM_623
623
*ORIENTATION, NAME=ORI_623, SYSTEM=RECTANGULAR
63.28101947, -76.76011524, 67.18479174, 63.83857423, -76.26682164, 68.38720354
3, 0.
*SHELL SECTION, ELSET=ELEM_623, COMPOSITE, ORIENTATION=ORI_623
1.25824404, 3, CFRP, 0.
** SOURCE_TET=3014
*ELSET, ELSET=ELEM_624
624
*ORIENTATION, NAME=ORI_624, SYSTEM=RECTANGULAR
85.85267587, 49.96712858, 11.61914086, 85.51978797, 50.61768000, 12.82991272
3, 0.
*SHELL SECTION, ELSET=ELEM_624, COMPOSITE, ORIENTATION=ORI_624
1.25885975, 3, CFRP, 0.
** SOURCE_TET=6669
*ELSET, ELSET=ELEM_625
625
*ORIENTATION, NAME=ORI_625, SYSTEM=RECTANGULAR
85.25662714, 51.67464364, 37.93921379, 84.88525606, 52.33145734, 39.13532386
3, 0.
*SHELL SECTION, ELSET=ELEM_625, COMPOSITE, ORIENTATION=ORI_625
1.25826573, 3, CFRP, 0.
** SOURCE_TET=5817
*ELSET, ELSET=ELEM_626
626
*ORIENTATION, NAME=ORI_626, SYSTEM=RECTANGULAR
88.87225753, 44.66347676, 24.26566565, 88.55020885, 45.33656302, 25.46701470
3, 0.
*SHELL SECTION, ELSET=ELEM_626, COMPOSITE, ORIENTATION=ORI_626
1.25849104, 3, CFRP, 0.
** SOURCE_TET=2522
*ELSET, ELSET=ELEM_627
627
*ORIENTATION, NAME=ORI_627, SYSTEM=RECTANGULAR
88.59682687, 45.19292576, -1.01160973, 88.21047183, 45.80407062, 0.20380450
3, 0.
*SHELL SECTION, ELSET=ELEM_627, COMPOSITE, ORIENTATION=ORI_627
1.25907826, 3, CFRP, 0.
** SOURCE_TET=5881
*ELSET, ELSET=ELEM_628
628
*ORIENTATION, NAME=ORI_628, SYSTEM=RECTANGULAR
86.61279122, 49.46077734, -15.20000774, 86.24593622, 50.06419964, -13.97473269
3, 0.
*SHELL SECTION, ELSET=ELEM_628, COMPOSITE, ORIENTATION=ORI_628
1.25949228, 3, CFRP, 0.
** SOURCE_TET=5644
*ELSET, ELSET=ELEM_629
629
*ORIENTATION, NAME=ORI_629, SYSTEM=RECTANGULAR
81.87777442, 56.82830910, -20.76657454, 81.49912598, 57.41988466, -19.53911223
3, 0.
*SHELL SECTION, ELSET=ELEM_629, COMPOSITE, ORIENTATION=ORI_629
1.25959301, 3, CFRP, 0.
** SOURCE_TET=4733
*ELSET, ELSET=ELEM_630
630
*ORIENTATION, NAME=ORI_630, SYSTEM=RECTANGULAR
74.83903037, 65.68078532, -15.61713585, 74.33387984, 66.17906345, -14.39380358
3, 0.
*SHELL SECTION, ELSET=ELEM_630, COMPOSITE, ORIENTATION=ORI_630
1.25941753, 3, CFRP, 0.
** SOURCE_TET=4614
*ELSET, ELSET=ELEM_631
631
*ORIENTATION, NAME=ORI_631, SYSTEM=RECTANGULAR
61.13459744, 78.14462022, -56.09683786, 60.61138385, 78.55272599, -54.84795948
3, 0.
*SHELL SECTION, ELSET=ELEM_631, COMPOSITE, ORIENTATION=ORI_631
1.26062989, 3, CFRP, 0.
** SOURCE_TET=4567
*ELSET, ELSET=ELEM_632
632
*ORIENTATION, NAME=ORI_632, SYSTEM=RECTANGULAR
58.03762367, 80.69515203, -71.15923101, 57.50114514, 81.03775011, -69.89637023
3, 0.
*SHELL SECTION, ELSET=ELEM_632, COMPOSITE, ORIENTATION=ORI_632
1.26139843, 3, CFRP, 0.
** SOURCE_TET=5098
*ELSET, ELSET=ELEM_633
633
*ORIENTATION, NAME=ORI_633, SYSTEM=RECTANGULAR
69.89673892, 71.20748756, -28.50332027, 69.41330578, 71.70489783, -27.27089363
3, 0.
*SHELL SECTION, ELSET=ELEM_633, COMPOSITE, ORIENTATION=ORI_633
1.25981843, 3, CFRP, 0.
** SOURCE_TET=6951
*ELSET, ELSET=ELEM_634
634
*ORIENTATION, NAME=ORI_634, SYSTEM=RECTANGULAR
71.64052375, 69.40032998, -54.20722391, 71.17326712, 69.88854014, -52.96491877
3, 0.
*SHELL SECTION, ELSET=ELEM_634, COMPOSITE, ORIENTATION=ORI_634
1.26030481, 3, CFRP, 0.
** SOURCE_TET=6758
*ELSET, ELSET=ELEM_635
635
*ORIENTATION, NAME=ORI_635, SYSTEM=RECTANGULAR
73.96190206, 66.86270237, -41.37963032, 73.50082161, 67.36894973, -40.14224661
3, 0.
*SHELL SECTION, ELSET=ELEM_635, COMPOSITE, ORIENTATION=ORI_635
1.26005828, 3, CFRP, 0.
** SOURCE_TET=3518
*ELSET, ELSET=ELEM_636
636
*ORIENTATION, NAME=ORI_636, SYSTEM=RECTANGULAR
6.23366858, -99.25496816, 69.44003532, 6.97625813, -99.25682653, 70.64359558
3, 0.
*SHELL SECTION, ELSET=ELEM_636, COMPOSITE, ORIENTATION=ORI_636
1.25827730, 3, CFRP, 0.
** SOURCE_TET=6766
*ELSET, ELSET=ELEM_637
637
*ORIENTATION, NAME=ORI_637, SYSTEM=RECTANGULAR
31.80253072, -94.29389534, 53.12552199, 32.52776109, -94.06986017, 54.31877349
3, 0.
*SHELL SECTION, ELSET=ELEM_637, COMPOSITE, ORIENTATION=ORI_637
1.25806224, 3, CFRP, 0.
** SOURCE_TET=2380
*ELSET, ELSET=ELEM_638
638
*ORIENTATION, NAME=ORI_638, SYSTEM=RECTANGULAR
-19.68988682, -97.40120898, 69.59456902, -18.97097396, -97.58327926, 70.79873459
3, 0.
*SHELL SECTION, ELSET=ELEM_638, COMPOSITE, ORIENTATION=ORI_638
1.25829041, 3, CFRP, 0.
** SOURCE_TET=3677
*ELSET, ELSET=ELEM_639
639
*ORIENTATION, NAME=ORI_639, SYSTEM=RECTANGULAR
-6.41935977, -99.23015828, 79.34310702, -5.69315714, -99.22645935, 80.55662094
3, 0.
*SHELL SECTION, ELSET=ELEM_639, COMPOSITE, ORIENTATION=ORI_639
1.25849855, 3, CFRP, 0.
** SOURCE_TET=5057
*ELSET, ELSET=ELEM_640
640
*ORIENTATION, NAME=ORI_640, SYSTEM=RECTANGULAR
57.51401946, 81.28014655, 68.33727909, 56.93469374, 81.73494256, 69.54456625
3, 0.
*SHELL SECTION, ELSET=ELEM_640, COMPOSITE, ORIENTATION=ORI_640
1.25835061, 3, CFRP, 0.
** SOURCE_TET=6269
*ELSET, ELSET=ELEM_641
641
*ORIENTATION, NAME=ORI_641, SYSTEM=RECTANGULAR
33.87443296, 93.42587964, 51.91668750, 33.16448853, 93.71664387, 53.10472582
3, 0.
*SHELL SECTION, ELSET=ELEM_641, COMPOSITE, ORIENTATION=ORI_641
1.25796843, 3, CFRP, 0.
** SOURCE_TET=4152
*ELSET, ELSET=ELEM_642
642
*ORIENTATION, NAME=ORI_642, SYSTEM=RECTANGULAR
87.66032742, 47.34825581, 64.40815263, 87.32185181, 48.01679144, 65.60752511
3, 0.
*SHELL SECTION, ELSET=ELEM_642, COMPOSITE, ORIENTATION=ORI_642
1.25818193, 3, CFRP, 0.
** SOURCE_TET=7051
*ELSET, ELSET=ELEM_643
643
*ORIENTATION, NAME=ORI_643, SYSTEM=RECTANGULAR
88.54030730, 45.64263686, 47.26748326, 88.15849256, 46.30715622, 48.45602502
3, 0.
*SHELL SECTION, ELSET=ELEM_643, COMPOSITE, ORIENTATION=ORI_643
1.25797296, 3, CFRP, 0.
** SOURCE_TET=4867
*ELSET, ELSET=ELEM_644
644
*ORIENTATION, NAME=ORI_644, SYSTEM=RECTANGULAR
-28.45207068, 95.21551884, 56.11256804, -29.17283848, 94.99022194, 57.30828335
3, 0.
*SHELL SECTION, ELSET=ELEM_644, COMPOSITE, ORIENTATION=ORI_644
1.25811195, 3, CFRP, 0.
** SOURCE_TET=5015
*ELSET, ELSET=ELEM_645
645
*ORIENTATION, NAME=ORI_645, SYSTEM=RECTANGULAR
91.28340188, 39.41647479, -42.70611644, 91.01625528, 40.04619266, -41.46834098
3, 0.
*SHELL SECTION, ELSET=ELEM_645, COMPOSITE, ORIENTATION=ORI_645
1.26008284, 3, CFRP, 0.
** SOURCE_TET=5783
*ELSET, ELSET=ELEM_646
646
*ORIENTATION, NAME=ORI_646, SYSTEM=RECTANGULAR
85.17313283, 51.62211549, -46.51131263, 84.82479845, 52.20395727, -45.27029559
3, 0.
*SHELL SECTION, ELSET=ELEM_646, COMPOSITE, ORIENTATION=ORI_646
1.26024187, 3, CFRP, 0.
** SOURCE_TET=5364
*ELSET, ELSET=ELEM_647
647
*ORIENTATION, NAME=ORI_647, SYSTEM=RECTANGULAR
80.89852614, 58.19424371, -37.39040271, 80.49871733, 58.75745230, -36.15632451
3, 0.
*SHELL SECTION, ELSET=ELEM_647, COMPOSITE, ORIENTATION=ORI_647
1.25989819, 3, CFRP, 0.
** SOURCE_TET=3243
*ELSET, ELSET=ELEM_648
648
*ORIENTATION, NAME=ORI_648, SYSTEM=RECTANGULAR
-73.47205150, 67.00478824, 63.99537063, -74.02448050, 66.49966524, 65.19523436
3, 0.
*SHELL SECTION, ELSET=ELEM_648, COMPOSITE, ORIENTATION=ORI_648
1.25819957, 3, CFRP, 0.
** SOURCE_TET=7038
*ELSET, ELSET=ELEM_649
649
*ORIENTATION, NAME=ORI_649, SYSTEM=RECTANGULAR
-69.62549739, 71.31561132, 75.86062214, -70.15866923, 70.81883127, 77.07261941
3, 0.
*SHELL SECTION, ELSET=ELEM_649, COMPOSITE, ORIENTATION=ORI_649
1.25845146, 3, CFRP, 0.
** SOURCE_TET=3604
*ELSET, ELSET=ELEM_650
650
*ORIENTATION, NAME=ORI_650, SYSTEM=RECTANGULAR
-12.67210691, 98.47295193, 56.05875035, -13.42340421, 98.39365532, 57.25426882
3, 0.
*SHELL SECTION, ELSET=ELEM_650, COMPOSITE, ORIENTATION=ORI_650
1.25811124, 3, CFRP, 0.
** SOURCE_TET=4735
*ELSET, ELSET=ELEM_651
651
*ORIENTATION, NAME=ORI_651, SYSTEM=RECTANGULAR
-4.72701007, 99.04918228, 68.96833471, -5.46911582, 98.98147161, 70.17028908
3, 0.
*SHELL SECTION, ELSET=ELEM_651, COMPOSITE, ORIENTATION=ORI_651
1.25823915, 3, CFRP, 0.
** SOURCE_TET=3811
*ELSET, ELSET=ELEM_652
652
*ORIENTATION, NAME=ORI_652, SYSTEM=RECTANGULAR
-13.04521896, 98.37274227, 82.10059078, -13.76563098, 98.32794527, 83.31673212
3, 0.
*SHELL SECTION, ELSET=ELEM_652, COMPOSITE, ORIENTATION=ORI_652
1.25854111, 3, CFRP, 0.
** SOURCE_TET=4086
*ELSET, ELSET=ELEM_653
653
*ORIENTATION, NAME=ORI_653, SYSTEM=RECTANGULAR
-83.87635711, 53.29689005, 39.33552326, -84.26054844, 52.64633485, 40.53100432
3, 0.
*SHELL SECTION, ELSET=ELEM_653, COMPOSITE, ORIENTATION=ORI_653
1.25824368, 3, CFRP, 0.
** SOURCE_TET=2843
*ELSET, ELSET=ELEM_654
654
*ORIENTATION, NAME=ORI_654, SYSTEM=RECTANGULAR
-87.55578427, 47.17772426, 52.66718986, -87.95266133, 46.52701679, 53.85843642
3, 0.
*SHELL SECTION, ELSET=ELEM_654, COMPOSITE, ORIENTATION=ORI_654
1.25802267, 3, CFRP, 0.
** SOURCE_TET=6337
*ELSET, ELSET=ELEM_655
655
*ORIENTATION, NAME=ORI_655, SYSTEM=RECTANGULAR
-82.62626087, 55.23163784, 63.71296806, -82.99395174, 54.57585011, 64.91077684
3, 0.
*SHELL SECTION, ELSET=ELEM_655, COMPOSITE, ORIENTATION=ORI_655
1.25815785, 3, CFRP, 0.
** SOURCE_TET=6828
*ELSET, ELSET=ELEM_656
656
*ORIENTATION, NAME=ORI_656, SYSTEM=RECTANGULAR
-99.48884326, 1.20432394, 78.50819929, -99.52886199, 0.48002063, 79.72219402
3, 0.
*SHELL SECTION, ELSET=ELEM_656, COMPOSITE, ORIENTATION=ORI_656
1.25849128, 3, CFRP, 0.
** SOURCE_TET=3076
*ELSET, ELSET=ELEM_657
657
*ORIENTATION, NAME=ORI_657, SYSTEM=RECTANGULAR
-94.46246354, 30.54150449, 78.53689231, -94.70909524, 29.85127229, 79.74633529
3, 0.
*SHELL SECTION, ELSET=ELEM_657, COMPOSITE, ORIENTATION=ORI_657
1.25840783, 3, CFRP, 0.
** SOURCE_TET=5473
*ELSET, ELSET=ELEM_658
658
*ORIENTATION, NAME=ORI_658, SYSTEM=RECTANGULAR
11.69512211, 98.75940202, 65.42645227, 10.95594130, 98.87684433, 66.62637686
3, 0.
*SHELL SECTION, ELSET=ELEM_658, COMPOSITE, ORIENTATION=ORI_658
1.25819421, 3, CFRP, 0.
** SOURCE_TET=6805
*ELSET, ELSET=ELEM_659
659
*ORIENTATION, NAME=ORI_659, SYSTEM=RECTANGULAR
19.12911096, 97.57247693, 50.83412094, 18.37227417, 97.69376775, 52.02260174
3, 0.
*SHELL SECTION, ELSET=ELEM_659, COMPOSITE, ORIENTATION=ORI_659
1.25798571, 3, CFRP, 0.
** SOURCE_TET=3815
*ELSET, ELSET=ELEM_660
660
*ORIENTATION, NAME=ORI_660, SYSTEM=RECTANGULAR
85.10303925, -51.09051509, -70.09911485, 85.47156533, -50.57240417, -68.83588502
3, 0.
*SHELL SECTION, ELSET=ELEM_660, COMPOSITE, ORIENTATION=ORI_660
1.26138985, 3, CFRP, 0.
** SOURCE_TET=5336
*ELSET, ELSET=ELEM_661
661
*ORIENTATION, NAME=ORI_661, SYSTEM=RECTANGULAR
81.27277621, -56.94814943, -82.20603089, 81.57595869, -56.43720652, -80.92266901
3, 0.
*SHELL SECTION, ELSET=ELEM_661, COMPOSITE, ORIENTATION=ORI_661
1.26257288, 3, CFRP, 0.
** SOURCE_TET=1659
*ELSET, ELSET=ELEM_662
662
*ORIENTATION, NAME=ORI_662, SYSTEM=RECTANGULAR
42.61889313, -89.61423387, -57.21661169, 43.21145454, -89.32197855, -55.96622862
3, 0.
*SHELL SECTION, ELSET=ELEM_662, COMPOSITE, ORIENTATION=ORI_662
1.26070416, 3, CFRP, 0.
** SOURCE_TET=5567
*ELSET, ELSET=ELEM_663
663
*ORIENTATION, NAME=ORI_663, SYSTEM=RECTANGULAR
50.78114223, -85.38998209, -42.89806821, 51.38502316, -85.06278497, -41.66183609
3, 0.
*SHELL SECTION, ELSET=ELEM_663, COMPOSITE, ORIENTATION=ORI_663
1.26000297, 3, CFRP, 0.
** SOURCE_TET=5655
*ELSET, ELSET=ELEM_664
664
*ORIENTATION, NAME=ORI_664, SYSTEM=RECTANGULAR
27.77804068, -95.49032257, -57.82961955, 28.42176154, -95.31547585, -56.58260228
3, 0.
*SHELL SECTION, ELSET=ELEM_664, COMPOSITE, ORIENTATION=ORI_664
1.26053405, 3, CFRP, 0.
** SOURCE_TET=1609
*ELSET, ELSET=ELEM_665
665
*ORIENTATION, NAME=ORI_665, SYSTEM=RECTANGULAR
18.01443395, -97.63776779, -72.37111202, 18.62851978, -97.53368075, -71.10144101
3, 0.
*SHELL SECTION, ELSET=ELEM_665, COMPOSITE, ORIENTATION=ORI_665
1.26175666, 3, CFRP, 0.
** SOURCE_TET=3276
*ELSET, ELSET=ELEM_666
666
*ORIENTATION, NAME=ORI_666, SYSTEM=RECTANGULAR
24.89917872, -96.01524973, -84.09002310, 25.48686637, -95.89410062, -82.80941929
3, 0.
*SHELL SECTION, ELSET=ELEM_666, COMPOSITE, ORIENTATION=ORI_666
1.26239896, 3, CFRP, 0.
** SOURCE_TET=1403
*ELSET, ELSET=ELEM_667
667
*ORIENTATION, NAME=ORI_667, SYSTEM=RECTANGULAR
21.36049404, -97.05013057, -43.44071951, 22.02302406, -96.88542060, -42.20220241
3, 0.
*SHELL SECTION, ELSET=ELEM_667, COMPOSITE, ORIENTATION=ORI_667
1.26011717, 3, CFRP, 0.
** SOURCE_TET=4952
*ELSET, ELSET=ELEM_668
668
*ORIENTATION, NAME=ORI_668, SYSTEM=RECTANGULAR
3.88579343, -99.52043535, -70.54440155, 4.51164661, -99.48963418, -69.27658489
3, 0.
*SHELL SECTION, ELSET=ELEM_668, COMPOSITE, ORIENTATION=ORI_668
1.26165891, 3, CFRP, 0.
** SOURCE_TET=6742
*ELSET, ELSET=ELEM_669
669
*ORIENTATION, NAME=ORI_669, SYSTEM=RECTANGULAR
-68.89150281, 71.76235657, -80.70864285, -69.30445440, 71.33002915, -79.42701732
3, 0.
*SHELL SECTION, ELSET=ELEM_669, COMPOSITE, ORIENTATION=ORI_669
1.26247561, 3, CFRP, 0.
** SOURCE_TET=2799
*ELSET, ELSET=ELEM_670
670
*ORIENTATION, NAME=ORI_670, SYSTEM=RECTANGULAR
-28.06990027, 95.28980786, -58.54702825, -28.68890327, 95.08240538, -57.29250862
3, 0.
*SHELL SECTION, ELSET=ELEM_670, COMPOSITE, ORIENTATION=ORI_670
1.26092076, 3, CFRP, 0.
** SOURCE_TET=4975
*ELSET, ELSET=ELEM_671
671
*ORIENTATION, NAME=ORI_671, SYSTEM=RECTANGULAR
-35.89886765, 92.63577570, -43.56922948, -36.54491851, 92.41370263, -42.33096382
3, 0.
*SHELL SECTION, ELSET=ELEM_671, COMPOSITE, ORIENTATION=ORI_671
1.26009929, 3, CFRP, 0.
** SOURCE_TET=6306
*ELSET, ELSET=ELEM_672
672
*ORIENTATION, NAME=ORI_672, SYSTEM=RECTANGULAR
-12.87527239, 98.59441054, -61.09018002, -13.52603356, 98.53622170, -59.83593763
3, 0.
*SHELL SECTION, ELSET=ELEM_672, COMPOSITE, ORIENTATION=ORI_672
1.26089406, 3, CFRP, 0.
** SOURCE_TET=4489
*ELSET, ELSET=ELEM_673
673
*ORIENTATION, NAME=ORI_673, SYSTEM=RECTANGULAR
-3.90094484, 99.18390070, -75.34268679, -4.50860432, 99.16256335, -74.06585686
3, 0.
*SHELL SECTION, ELSET=ELEM_673, COMPOSITE, ORIENTATION=ORI_673
1.26217580, 3, CFRP, 0.
** SOURCE_TET=1917
*ELSET, ELSET=ELEM_674
674
*ORIENTATION, NAME=ORI_674, SYSTEM=RECTANGULAR
-11.56027513, 98.51869009, -85.79172279, -12.14670872, 98.48072163, -84.50538922
3, 0.
*SHELL SECTION, ELSET=ELEM_674, COMPOSITE, ORIENTATION=ORI_674
1.26276302, 3, CFRP, 0.
** SOURCE_TET=2899
*ELSET, ELSET=ELEM_675
675
*ORIENTATION, NAME=ORI_675, SYSTEM=RECTANGULAR
-5.34747225, 99.26660236, -46.02976905, -6.02316200, 99.20687674, -44.78885157
3, 0.
*SHELL SECTION, ELSET=ELEM_675, COMPOSITE, ORIENTATION=ORI_675
1.26024091, 3, CFRP, 0.
** SOURCE_TET=5726
*ELSET, ELSET=ELEM_676
676
*ORIENTATION, NAME=ORI_676, SYSTEM=RECTANGULAR
11.35886134, 98.85983281, -72.62257616, 10.73972121, 98.92896111, -71.35297513
3, 0.
*SHELL SECTION, ELSET=ELEM_676, COMPOSITE, ORIENTATION=ORI_676
1.26173925, 3, CFRP, 0.
** SOURCE_TET=2365
*ELSET, ELSET=ELEM_677
677
*ORIENTATION, NAME=ORI_677, SYSTEM=RECTANGULAR
-87.00863762, 48.01171986, -80.65745244, -87.27956352, 47.46647168, -79.38101067
3, 0.
*SHELL SECTION, ELSET=ELEM_677, COMPOSITE, ORIENTATION=ORI_677
1.26219380, 3, CFRP, 0.
** SOURCE_TET=2772
*ELSET, ELSET=ELEM_678
678
*ORIENTATION, NAME=ORI_678, SYSTEM=RECTANGULAR
91.77399051, -37.87188904, 70.47108832, 92.07866738, -37.19720765, 71.67606841
3, 0.
*SHELL SECTION, ELSET=ELEM_678, COMPOSITE, ORIENTATION=ORI_678
1.25830698, 3, CFRP, 0.
** SOURCE_TET=7431
*ELSET, ELSET=ELEM_679
679
*ORIENTATION, NAME=ORI_679, SYSTEM=RECTANGULAR
95.54467472, -27.98104140, 80.93522816, 95.74842607, -27.28798668, 82.15102442
3, 0.
*SHELL SECTION, ELSET=ELEM_679, COMPOSITE, ORIENTATION=ORI_679
1.25853515, 3, CFRP, 0.
** SOURCE_TET=7442
*ELSET, ELSET=ELEM_680
680
*ORIENTATION, NAME=ORI_680, SYSTEM=RECTANGULAR
94.70827332, 29.02770376, 80.71299224, 94.46836151, 29.70978340, 81.92839740
3, 0.
*SHELL SECTION, ELSET=ELEM_680, COMPOSITE, ORIENTATION=ORI_680
1.25852060, 3, CFRP, 0.
** SOURCE_TET=7457
*ELSET, ELSET=ELEM_681
681
*ORIENTATION, NAME=ORI_681, SYSTEM=RECTANGULAR
92.89367953, 35.11098974, 69.10675847, 92.62145292, 35.79512876, 70.31417160
3, 0.
*SHELL SECTION, ELSET=ELEM_681, COMPOSITE, ORIENTATION=ORI_681
1.25836480, 3, CFRP, 0.
** SOURCE_TET=1608
*ELSET, ELSET=ELEM_682
682
*ORIENTATION, NAME=ORI_682, SYSTEM=RECTANGULAR
-96.19157323, 25.05831324, -41.67375574, -96.38883112, 24.40263203, -40.43635059
3, 0.
*SHELL SECTION, ELSET=ELEM_682, COMPOSITE, ORIENTATION=ORI_682
1.26006079, 3, CFRP, 0.
** SOURCE_TET=4935
*ELSET, ELSET=ELEM_683
683
*ORIENTATION, NAME=ORI_683, SYSTEM=RECTANGULAR
-99.10178054, 8.38554979, -66.05532728, -99.09917910, 7.73951128, -64.79730205
3, 0.
*SHELL SECTION, ELSET=ELEM_683, COMPOSITE, ORIENTATION=ORI_683
1.26111686, 3, CFRP, 0.
** SOURCE_TET=6066
*ELSET, ELSET=ELEM_684
684
*ORIENTATION, NAME=ORI_684, SYSTEM=RECTANGULAR
-94.23735546, 31.81301645, -54.99824162, -94.41501604, 31.17707545, -53.74763546
3, 0.
*SHELL SECTION, ELSET=ELEM_684, COMPOSITE, ORIENTATION=ORI_684
1.26071382, 3, CFRP, 0.
** SOURCE_TET=4809
*ELSET, ELSET=ELEM_685
685
*ORIENTATION, NAME=ORI_685, SYSTEM=RECTANGULAR
-96.69919146, 23.00483869, -65.76496211, -96.89912801, 22.39620200, -64.50417396
3, 0.
*SHELL SECTION, ELSET=ELEM_685, COMPOSITE, ORIENTATION=ORI_685
1.26126218, 3, CFRP, 0.
** SOURCE_TET=1736
*ELSET, ELSET=ELEM_686
686
*ORIENTATION, NAME=ORI_686, SYSTEM=RECTANGULAR
-97.30133659, -20.70106473, -70.65314078, -97.18916834, -21.32132526, -69.38716481
3, 0.
*SHELL SECTION, ELSET=ELEM_686, COMPOSITE, ORIENTATION=ORI_686
1.26153338, 3, CFRP, 0.
** SOURCE_TET=6246
*ELSET, ELSET=ELEM_687
687
*ORIENTATION, NAME=ORI_687, SYSTEM=RECTANGULAR
-98.62616805, -11.22715624, -82.29808890, -98.58556135, -11.82159269, -81.01551477
3, 0.
*SHELL SECTION, ELSET=ELEM_687, COMPOSITE, ORIENTATION=ORI_687
1.26256061, 3, CFRP, 0.
** SOURCE_TET=7083
*ELSET, ELSET=ELEM_688
688
*ORIENTATION, NAME=ORI_688, SYSTEM=RECTANGULAR
-99.65211721, 2.40173346, -77.85095695, -99.65136679, 1.79840355, -76.57189774
3, 0.
*SHELL SECTION, ELSET=ELEM_688, COMPOSITE, ORIENTATION=ORI_688
1.26231110, 3, CFRP, 0.
** SOURCE_TET=2988
*ELSET, ELSET=ELEM_689
689
*ORIENTATION, NAME=ORI_689, SYSTEM=RECTANGULAR
-93.31997979, -34.45893764, -69.91642504, -93.08827054, -35.04187052, -68.64894720
3, 0.
*SHELL SECTION, ELSET=ELEM_689, COMPOSITE, ORIENTATION=ORI_689
1.26161122, 3, CFRP, 0.
** SOURCE_TET=2473
*ELSET, ELSET=ELEM_690
690
*ORIENTATION, NAME=ORI_690, SYSTEM=RECTANGULAR
-75.22589097, -64.87195219, 70.80720247, -74.74437234, -65.43443043, 72.01209169
3, 0.
*SHELL SECTION, ELSET=ELEM_690, COMPOSITE, ORIENTATION=ORI_690
1.25830162, 3, CFRP, 0.
** SOURCE_TET=2721
*ELSET, ELSET=ELEM_691
691
*ORIENTATION, NAME=ORI_691, SYSTEM=RECTANGULAR
-79.57692631, -59.15740759, 82.85764109, -79.12353865, -59.71642225, 84.07499159
3, 0.
*SHELL SECTION, ELSET=ELEM_691, COMPOSITE, ORIENTATION=ORI_691
1.25856709, 3, CFRP, 0.
** SOURCE_TET=3231
*ELSET, ELSET=ELEM_692
692
*ORIENTATION, NAME=ORI_692, SYSTEM=RECTANGULAR
-64.85183553, -75.45597358, 68.29799539, -64.29174249, -75.94366897, 69.50151066
3, 0.
*SHELL SECTION, ELSET=ELEM_692, COMPOSITE, ORIENTATION=ORI_692
1.25826919, 3, CFRP, 0.
** SOURCE_TET=5729
*ELSET, ELSET=ELEM_693
693
*ORIENTATION, NAME=ORI_693, SYSTEM=RECTANGULAR
-45.70902369, -88.24347379, -72.32290185, -45.13154827, -88.48530381, -71.05481653
3, 0.
*SHELL SECTION, ELSET=ELEM_693, COMPOSITE, ORIENTATION=ORI_693
1.26170492, 3, CFRP, 0.
** SOURCE_TET=3807
*ELSET, ELSET=ELEM_694
694
*ORIENTATION, NAME=ORI_694, SYSTEM=RECTANGULAR
-57.26160758, -81.17271941, -80.17199875, -56.80496529, -81.56231626, -78.89149412
3, 0.
*SHELL SECTION, ELSET=ELEM_694, COMPOSITE, ORIENTATION=ORI_694
1.26244462, 3, CFRP, 0.
** SOURCE_TET=4945
*ELSET, ELSET=ELEM_695
695
*ORIENTATION, NAME=ORI_695, SYSTEM=RECTANGULAR
-67.87743540, -72.69449010, -72.47676084, -67.38649954, -73.08775775, -71.21014229
3, 0.
*SHELL SECTION, ELSET=ELEM_695, COMPOSITE, ORIENTATION=ORI_695
1.26161683, 3, CFRP, 0.
** SOURCE_TET=6477
*ELSET, ELSET=ELEM_696
696
*ORIENTATION, NAME=ORI_696, SYSTEM=RECTANGULAR
-68.02719035, -72.43698956, -59.47567319, -67.59978410, -72.93246615, -58.22194800
3, 0.
*SHELL SECTION, ELSET=ELEM_696, COMPOSITE, ORIENTATION=ORI_696
1.26094127, 3, CFRP, 0.
** SOURCE_TET=7024
*ELSET, ELSET=ELEM_697
697
*ORIENTATION, NAME=ORI_697, SYSTEM=RECTANGULAR
84.41560722, 53.00855323, -60.86299397, 84.03931525, 53.54517169, -59.60982001
3, 0.
*SHELL SECTION, ELSET=ELEM_697, COMPOSITE, ORIENTATION=ORI_697
1.26086080, 3, CFRP, 0.
** SOURCE_TET=6946
*ELSET, ELSET=ELEM_698
698
*ORIENTATION, NAME=ORI_698, SYSTEM=RECTANGULAR
77.69563745, 62.04325913, -64.56439751, 77.33598770, 62.57421466, -63.30394588
3, 0.
*SHELL SECTION, ELSET=ELEM_698, COMPOSITE, ORIENTATION=ORI_698
1.26128471, 3, CFRP, 0.
** SOURCE_TET=1449
*ELSET, ELSET=ELEM_699
699
*ORIENTATION, NAME=ORI_699, SYSTEM=RECTANGULAR
8.68322766, -14.18943384, 208.58857664, 8.25421994, -12.85921989, 208.80417633
3, 0.
*SHELL SECTION, ELSET=ELEM_699, COMPOSITE, ORIENTATION=ORI_699
1.59014010, 3, CFRP, 0.
** SOURCE_TET=2804
*ELSET, ELSET=ELEM_700
700
*ORIENTATION, NAME=ORI_700, SYSTEM=RECTANGULAR
11.11338715, -10.31823341, 208.81326718, 10.30858590, -9.17185533, 209.00849076
3, 0.
*SHELL SECTION, ELSET=ELEM_700, COMPOSITE, ORIENTATION=ORI_700
1.59195149, 3, CFRP, 0.
** SOURCE_TET=1579
*ELSET, ELSET=ELEM_701
701
*ORIENTATION, NAME=ORI_701, SYSTEM=RECTANGULAR
10.61329840, -12.92045421, 208.57069399, 9.93713200, -11.69809324, 208.79122215
3, 0.
*SHELL SECTION, ELSET=ELEM_701, COMPOSITE, ORIENTATION=ORI_701
1.59095526, 3, CFRP, 0.
** SOURCE_TET=1511
*ELSET, ELSET=ELEM_702
702
*ORIENTATION, NAME=ORI_702, SYSTEM=RECTANGULAR
7.62169747, 14.50693375, 208.63267033, 6.76294880, 13.40385234, 208.84659117
3, 0.
*SHELL SECTION, ELSET=ELEM_702, COMPOSITE, ORIENTATION=ORI_702
1.59098601, 3, CFRP, 0.
** SOURCE_TET=745
*ELSET, ELSET=ELEM_703
703
*ORIENTATION, NAME=ORI_703, SYSTEM=RECTANGULAR
10.18554842, 11.01421038, 208.84461617, 9.04222428, 10.20389825, 209.03489011
3, 0.
*SHELL SECTION, ELSET=ELEM_703, COMPOSITE, ORIENTATION=ORI_703
1.59154797, 3, CFRP, 0.
** SOURCE_TET=2249
*ELSET, ELSET=ELEM_704
704
*ORIENTATION, NAME=ORI_704, SYSTEM=RECTANGULAR
9.56547105, 13.30763708, 208.63346846, 8.50254374, 12.39963502, 208.84728567
3, 0.
*SHELL SECTION, ELSET=ELEM_704, COMPOSITE, ORIENTATION=ORI_704
1.59066033, 3, CFRP, 0.
** SOURCE_TET=4851
*ELSET, ELSET=ELEM_705
705
*ORIENTATION, NAME=ORI_705, SYSTEM=RECTANGULAR
48.09386931, -10.75071929, 196.77979296, 47.02809860, -10.10006728, 197.44370918
3, 0.
*SHELL SECTION, ELSET=ELEM_705, COMPOSITE, ORIENTATION=ORI_705
1.33292389, 3, CFRP, 0.
** SOURCE_TET=4503
*ELSET, ELSET=ELEM_706
706
*ORIENTATION, NAME=ORI_706, SYSTEM=RECTANGULAR
51.84370197, -15.19108859, 193.89617669, 50.85715210, -14.48398635, 194.62193544
3, 0.
*SHELL SECTION, ELSET=ELEM_706, COMPOSITE, ORIENTATION=ORI_706
1.32289231, 3, CFRP, 0.
** SOURCE_TET=6342
*ELSET, ELSET=ELEM_707
707
*ORIENTATION, NAME=ORI_707, SYSTEM=RECTANGULAR
57.64864853, -13.36707040, 190.30924565, 56.68922484, -12.69577726, 191.10225996
3, 0.
*SHELL SECTION, ELSET=ELEM_707, COMPOSITE, ORIENTATION=ORI_707
1.30880058, 3, CFRP, 0.
** SOURCE_TET=1010
*ELSET, ELSET=ELEM_708
708
*ORIENTATION, NAME=ORI_708, SYSTEM=RECTANGULAR
4.69285567, -15.71934508, 208.62804382, 4.61435831, -14.32338550, 208.84049388
3, 0.
*SHELL SECTION, ELSET=ELEM_708, COMPOSITE, ORIENTATION=ORI_708
1.59025335, 3, CFRP, 0.
** SOURCE_TET=548
*ELSET, ELSET=ELEM_709
709
*ORIENTATION, NAME=ORI_709, SYSTEM=RECTANGULAR
0.51110905, -15.19698133, 208.80914579, 0.81298610, -13.82912563, 209.00367350
3, 0.
*SHELL SECTION, ELSET=ELEM_709, COMPOSITE, ORIENTATION=ORI_709
1.59290528, 3, CFRP, 0.
** SOURCE_TET=156
*ELSET, ELSET=ELEM_710
710
*ORIENTATION, NAME=ORI_710, SYSTEM=RECTANGULAR
2.52975565, -16.33093534, 208.61388494, 2.59072848, -14.93449486, 208.82891120
3, 0.
*SHELL SECTION, ELSET=ELEM_710, COMPOSITE, ORIENTATION=ORI_710
1.59017217, 3, CFRP, 0.
** SOURCE_TET=4887
*ELSET, ELSET=ELEM_711
711
*ORIENTATION, NAME=ORI_711, SYSTEM=RECTANGULAR
48.43142149, 11.76644177, 196.48162537, 47.18809173, 11.89412106, 197.14331193
3, 0.
*SHELL SECTION, ELSET=ELEM_711, COMPOSITE, ORIENTATION=ORI_711
1.33169270, 3, CFRP, 0.
** SOURCE_TET=4789
*ELSET, ELSET=ELEM_712
712
*ORIENTATION, NAME=ORI_712, SYSTEM=RECTANGULAR
52.28687454, 16.17783524, 193.47148580, 51.08155051, 16.27380469, 194.20495962
3, 0.
*SHELL SECTION, ELSET=ELEM_712, COMPOSITE, ORIENTATION=ORI_712
1.32155037, 3, CFRP, 0.
** SOURCE_TET=5199
*ELSET, ELSET=ELEM_713
713
*ORIENTATION, NAME=ORI_713, SYSTEM=RECTANGULAR
57.80599034, 14.04169634, 190.05213022, 56.65399149, 14.24218165, 190.84755733
3, 0.
*SHELL SECTION, ELSET=ELEM_713, COMPOSITE, ORIENTATION=ORI_713
1.30746996, 3, CFRP, 0.
** SOURCE_TET=4296
*ELSET, ELSET=ELEM_714
714
*ORIENTATION, NAME=ORI_714, SYSTEM=RECTANGULAR
3.93269215, 15.94460997, 208.63200124, 3.29159950, 14.70178064, 208.84265609
3, 0.
*SHELL SECTION, ELSET=ELEM_714, COMPOSITE, ORIENTATION=ORI_714
1.59094882, 3, CFRP, 0.
** SOURCE_TET=497
*ELSET, ELSET=ELEM_715
715
*ORIENTATION, NAME=ORI_715, SYSTEM=RECTANGULAR
-0.58746834, 15.15929930, 208.81153269, -0.78720783, 13.77316976, 209.00838049
3, 0.
*SHELL SECTION, ELSET=ELEM_715, COMPOSITE, ORIENTATION=ORI_715
1.59287047, 3, CFRP, 0.
** SOURCE_TET=1073
*ELSET, ELSET=ELEM_716
716
*ORIENTATION, NAME=ORI_716, SYSTEM=RECTANGULAR
1.74758452, 16.47155641, 208.59755528, 1.23995696, 15.16902693, 208.81140387
3, 0.
*SHELL SECTION, ELSET=ELEM_716, COMPOSITE, ORIENTATION=ORI_716
1.59090996, 3, CFRP, 0.
** SOURCE_TET=3858
*ELSET, ELSET=ELEM_717
717
*ORIENTATION, NAME=ORI_717, SYSTEM=RECTANGULAR
9.48403447, -16.64404991, 208.12376943, 9.09126277, -15.31112554, 208.38652979
3, 0.
*SHELL SECTION, ELSET=ELEM_717, COMPOSITE, ORIENTATION=ORI_717
1.57860708, 3, CFRP, 0.
** SOURCE_TET=4061
*ELSET, ELSET=ELEM_718
718
*ORIENTATION, NAME=ORI_718, SYSTEM=RECTANGULAR
8.34342415, -18.14778774, 207.95536799, 8.04117164, -16.79113933, 208.21642069
3, 0.
*SHELL SECTION, ELSET=ELEM_718, COMPOSITE, ORIENTATION=ORI_718
1.56572640, 3, CFRP, 0.
** SOURCE_TET=2931
*ELSET, ELSET=ELEM_719
719
*ORIENTATION, NAME=ORI_719, SYSTEM=RECTANGULAR
5.93819442, -17.59659538, 208.23761456, 5.82502379, -16.20885180, 208.48532439
3, 0.
*SHELL SECTION, ELSET=ELEM_719, COMPOSITE, ORIENTATION=ORI_719
1.58775783, 3, CFRP, 0.
** SOURCE_TET=3452
*ELSET, ELSET=ELEM_720
720
*ORIENTATION, NAME=ORI_720, SYSTEM=RECTANGULAR
5.44235963, 17.82747060, 208.22657750, 4.75067154, 16.62013347, 208.47937119
3, 0.
*SHELL SECTION, ELSET=ELEM_720, COMPOSITE, ORIENTATION=ORI_720
1.58949959, 3, CFRP, 0.
** SOURCE_TET=3595
*ELSET, ELSET=ELEM_721
721
*ORIENTATION, NAME=ORI_721, SYSTEM=RECTANGULAR
7.66217271, 18.38993008, 207.97803090, 6.82975384, 17.27628536, 208.23663146
3, 0.
*SHELL SECTION, ELSET=ELEM_721, COMPOSITE, ORIENTATION=ORI_721
1.56565857, 3, CFRP, 0.
** SOURCE_TET=3177
*ELSET, ELSET=ELEM_722
722
*ORIENTATION, NAME=ORI_722, SYSTEM=RECTANGULAR
8.49469951, 16.78181280, 208.18362343, 7.60128918, 15.71545511, 208.43798398
3, 0.
*SHELL SECTION, ELSET=ELEM_722, COMPOSITE, ORIENTATION=ORI_722
1.58275628, 3, CFRP, 0.
** SOURCE_TET=2582
*ELSET, ELSET=ELEM_723
723
*ORIENTATION, NAME=ORI_723, SYSTEM=RECTANGULAR
34.25787853, -5.19940464, 203.75810008, 33.03591306, -4.66082374, 204.22364385
3, 0.
*SHELL SECTION, ELSET=ELEM_723, COMPOSITE, ORIENTATION=ORI_723
1.39609122, 3, CFRP, 0.
** SOURCE_TET=720
*ELSET, ELSET=ELEM_724
724
*ORIENTATION, NAME=ORI_724, SYSTEM=RECTANGULAR
29.71600439, -4.37548113, 205.35659218, 28.45669675, -3.87576865, 205.76209398
3, 0.
*SHELL SECTION, ELSET=ELEM_724, COMPOSITE, ORIENTATION=ORI_724
1.44082165, 3, CFRP, 0.
** SOURCE_TET=1027
*ELSET, ELSET=ELEM_725
725
*ORIENTATION, NAME=ORI_725, SYSTEM=RECTANGULAR
31.65874883, -6.02597226, 204.63107026, 30.43885842, -5.45922335, 205.06772008
3, 0.
*SHELL SECTION, ELSET=ELEM_725, COMPOSITE, ORIENTATION=ORI_725
1.41892695, 3, CFRP, 0.
** SOURCE_TET=1500
*ELSET, ELSET=ELEM_726
726
*ORIENTATION, NAME=ORI_726, SYSTEM=RECTANGULAR
34.47893874, 6.06190133, 203.63273630, 33.15245270, 6.19062419, 204.10588026
3, 0.
*SHELL SECTION, ELSET=ELEM_726, COMPOSITE, ORIENTATION=ORI_726
1.39499128, 3, CFRP, 0.
** SOURCE_TET=911
*ELSET, ELSET=ELEM_727
727
*ORIENTATION, NAME=ORI_727, SYSTEM=RECTANGULAR
29.67117139, 5.49715386, 205.31785454, 28.31950677, 5.59440341, 205.72226184
3, 0.
*SHELL SECTION, ELSET=ELEM_727, COMPOSITE, ORIENTATION=ORI_727
1.43156445, 3, CFRP, 0.
** SOURCE_TET=784
*ELSET, ELSET=ELEM_728
728
*ORIENTATION, NAME=ORI_728, SYSTEM=RECTANGULAR
31.84507729, 6.77924935, 204.52081019, 30.50302370, 6.85643022, 204.96005416
3, 0.
*SHELL SECTION, ELSET=ELEM_728, COMPOSITE, ORIENTATION=ORI_728
1.41724575, 3, CFRP, 0.
** SOURCE_TET=1166
*ELSET, ELSET=ELEM_729
729
*ORIENTATION, NAME=ORI_729, SYSTEM=RECTANGULAR
-13.71287821, 10.20385050, 208.47599220, -12.78343336, 9.16220789, 208.70207392
3, 0.
*SHELL SECTION, ELSET=ELEM_729, COMPOSITE, ORIENTATION=ORI_729
1.59077358, 3, CFRP, 0.
** SOURCE_TET=1209
*ELSET, ELSET=ELEM_730
730
*ORIENTATION, NAME=ORI_730, SYSTEM=RECTANGULAR
-14.79955131, 8.66881658, 208.48492890, -13.78329139, 7.71279630, 208.71566899
3, 0.
*SHELL SECTION, ELSET=ELEM_730, COMPOSITE, ORIENTATION=ORI_730
1.59073782, 3, CFRP, 0.
** SOURCE_TET=759
*ELSET, ELSET=ELEM_731
731
*ORIENTATION, NAME=ORI_731, SYSTEM=RECTANGULAR
-10.40100403, -11.15234484, 208.80156473, -9.27617596, -10.31766536, 208.99668513
3, 0.
*SHELL SECTION, ELSET=ELEM_731, COMPOSITE, ORIENTATION=ORI_731
1.59284616, 3, CFRP, 0.
** SOURCE_TET=2020
*ELSET, ELSET=ELEM_732
732
*ORIENTATION, NAME=ORI_732, SYSTEM=RECTANGULAR
-13.19907211, -10.53184503, 208.54051428, -11.92578621, -9.95797108, 208.76280173
3, 0.
*SHELL SECTION, ELSET=ELEM_732, COMPOSITE, ORIENTATION=ORI_732
1.59040046, 3, CFRP, 0.
** SOURCE_TET=3065
*ELSET, ELSET=ELEM_733
733
*ORIENTATION, NAME=ORI_733, SYSTEM=RECTANGULAR
-14.37363678, -8.61342012, 208.57058722, -13.04843458, -8.17078949, 208.78948733
3, 0.
*SHELL SECTION, ELSET=ELEM_733, COMPOSITE, ORIENTATION=ORI_733
1.59045541, 3, CFRP, 0.
** SOURCE_TET=1424
*ELSET, ELSET=ELEM_734
734
*ORIENTATION, NAME=ORI_734, SYSTEM=RECTANGULAR
-13.70029506, -6.77863736, 208.80788920, -12.34871136, -6.41276093, 209.00627254
3, 0.
*SHELL SECTION, ELSET=ELEM_734, COMPOSITE, ORIENTATION=ORI_734
1.59141898, 3, CFRP, 0.
** SOURCE_TET=5998
*ELSET, ELSET=ELEM_735
735
*ORIENTATION, NAME=ORI_735, SYSTEM=RECTANGULAR
-8.28961629, 94.80524289, 137.97734940, -8.90752122, 94.39624891, 139.18188974
3, 0.
*SHELL SECTION, ELSET=ELEM_735, COMPOSITE, ORIENTATION=ORI_735
1.26179481, 3, CFRP, 0.
** SOURCE_TET=5744
*ELSET, ELSET=ELEM_736
736
*ORIENTATION, NAME=ORI_736, SYSTEM=RECTANGULAR
-17.84526596, 91.50035403, 144.27509162, -18.38575978, 90.95335353, 145.46196014
3, 0.
*SHELL SECTION, ELSET=ELEM_736, COMPOSITE, ORIENTATION=ORI_736
1.26371217, 3, CFRP, 0.
** SOURCE_TET=5144
*ELSET, ELSET=ELEM_737
737
*ORIENTATION, NAME=ORI_737, SYSTEM=RECTANGULAR
-28.98024673, 90.02738412, 139.98888126, -29.48355806, 89.46461059, 141.18469214
3, 0.
*SHELL SECTION, ELSET=ELEM_737, COMPOSITE, ORIENTATION=ORI_737
1.26285112, 3, CFRP, 0.
** SOURCE_TET=136
*ELSET, ELSET=ELEM_738
738
*ORIENTATION, NAME=ORI_738, SYSTEM=RECTANGULAR
-2.90440207, 16.23909881, 208.60527157, -2.94775634, 14.84219810, 208.82157879
3, 0.
*SHELL SECTION, ELSET=ELEM_738, COMPOSITE, ORIENTATION=ORI_738
1.59116697, 3, CFRP, 0.
** SOURCE_TET=287
*ELSET, ELSET=ELEM_739
739
*ORIENTATION, NAME=ORI_739, SYSTEM=RECTANGULAR
-5.00843273, 15.12588871, 208.70283947, -4.89438993, 13.73213145, 208.91363540
3, 0.
*SHELL SECTION, ELSET=ELEM_739, COMPOSITE, ORIENTATION=ORI_739
1.59155631, 3, CFRP, 0.
** SOURCE_TET=4902
*ELSET, ELSET=ELEM_740
740
*ORIENTATION, NAME=ORI_740, SYSTEM=RECTANGULAR
-29.86700771, -90.33157059, 137.99642120, -29.13065147, -90.19204521, 139.19571772
3, 0.
*SHELL SECTION, ELSET=ELEM_740, COMPOSITE, ORIENTATION=ORI_740
1.26202857, 3, CFRP, 0.
** SOURCE_TET=5673
*ELSET, ELSET=ELEM_741
741
*ORIENTATION, NAME=ORI_741, SYSTEM=RECTANGULAR
-18.66221436, -91.29732122, 144.04193381, -17.95331670, -91.00012151, 145.22900434
3, 0.
*SHELL SECTION, ELSET=ELEM_741, COMPOSITE, ORIENTATION=ORI_741
1.26415241, 3, CFRP, 0.
** SOURCE_TET=3412
*ELSET, ELSET=ELEM_742
742
*ORIENTATION, NAME=ORI_742, SYSTEM=RECTANGULAR
-8.38782304, -94.76704304, 137.56555498, -7.70612818, -94.47184422, 138.76894593
3, 0.
*SHELL SECTION, ELSET=ELEM_742, COMPOSITE, ORIENTATION=ORI_742
1.26174152, 3, CFRP, 0.
** SOURCE_TET=62
*ELSET, ELSET=ELEM_743
743
*ORIENTATION, NAME=ORI_743, SYSTEM=RECTANGULAR
-1.81297290, -16.33468737, 208.61526595, -1.30805516, -15.03084395, 208.82751677
3, 0.
*SHELL SECTION, ELSET=ELEM_743, COMPOSITE, ORIENTATION=ORI_743
1.59026599, 3, CFRP, 0.
** SOURCE_TET=412
*ELSET, ELSET=ELEM_744
744
*ORIENTATION, NAME=ORI_744, SYSTEM=RECTANGULAR
-3.76345147, -15.30953097, 208.72965791, -3.13695907, -14.05896155, 208.93842433
3, 0.
*SHELL SECTION, ELSET=ELEM_744, COMPOSITE, ORIENTATION=ORI_744
1.59066272, 3, CFRP, 0.
** SOURCE_TET=4304
*ELSET, ELSET=ELEM_745
745
*ORIENTATION, NAME=ORI_745, SYSTEM=RECTANGULAR
-94.10261485, 12.13560502, 137.57123058, -93.84516652, 11.45597605, 138.78441845
3, 0.
*SHELL SECTION, ELSET=ELEM_745, COMPOSITE, ORIENTATION=ORI_745
1.26198733, 3, CFRP, 0.
** SOURCE_TET=5898
*ELSET, ELSET=ELEM_746
746
*ORIENTATION, NAME=ORI_746, SYSTEM=RECTANGULAR
-93.76735617, -17.57709688, 136.86971374, -93.32879456, -18.15024404, 138.08592344
3, 0.
*SHELL SECTION, ELSET=ELEM_746, COMPOSITE, ORIENTATION=ORI_746
1.26176083, 3, CFRP, 0.
** SOURCE_TET=6145
*ELSET, ELSET=ELEM_747
747
*ORIENTATION, NAME=ORI_747, SYSTEM=RECTANGULAR
-92.81132670, 1.56255531, 145.01637524, -92.40315616, 0.91315535, 146.20451518
3, 0.
*SHELL SECTION, ELSET=ELEM_747, COMPOSITE, ORIENTATION=ORI_747
1.26332664, 3, CFRP, 0.
** SOURCE_TET=5504
*ELSET, ELSET=ELEM_748
748
*ORIENTATION, NAME=ORI_748, SYSTEM=RECTANGULAR
-92.76543499, -10.14257287, 143.85416462, -92.28786433, -10.72687697, 145.05020600
3, 0.
*SHELL SECTION, ELSET=ELEM_748, COMPOSITE, ORIENTATION=ORI_748
1.26407719, 3, CFRP, 0.
** SOURCE_TET=2389
*ELSET, ELSET=ELEM_749
749
*ORIENTATION, NAME=ORI_749, SYSTEM=RECTANGULAR
22.16073164, -4.33066217, 207.39056192, 20.90529579, -3.75410074, 207.69298173
3, 0.
*SHELL SECTION, ELSET=ELEM_749, COMPOSITE, ORIENTATION=ORI_749
1.51249743, 3, CFRP, 0.
** SOURCE_TET=1909
*ELSET, ELSET=ELEM_750
750
*ORIENTATION, NAME=ORI_750, SYSTEM=RECTANGULAR
20.24203020, -5.54431861, 207.74201139, 19.03897411, -4.85627433, 208.02352712
3, 0.
*SHELL SECTION, ELSET=ELEM_750, COMPOSITE, ORIENTATION=ORI_750
1.54493618, 3, CFRP, 0.
** SOURCE_TET=594
*ELSET, ELSET=ELEM_751
751
*ORIENTATION, NAME=ORI_751, SYSTEM=RECTANGULAR
18.50393672, -3.96184063, 208.17553389, 17.26705874, -3.32373615, 208.42644331
3, 0.
*SHELL SECTION, ELSET=ELEM_751, COMPOSITE, ORIENTATION=ORI_751
1.57585967, 3, CFRP, 0.
** SOURCE_TET=2223
*ELSET, ELSET=ELEM_752
752
*ORIENTATION, NAME=ORI_752, SYSTEM=RECTANGULAR
20.40151675, 6.66679426, 207.64476513, 19.02109540, 6.56122906, 207.93337022
3, 0.
*SHELL SECTION, ELSET=ELEM_752, COMPOSITE, ORIENTATION=ORI_752
1.53110874, 3, CFRP, 0.
** SOURCE_TET=2903
*ELSET, ELSET=ELEM_753
753
*ORIENTATION, NAME=ORI_753, SYSTEM=RECTANGULAR
22.34162843, 6.42238548, 207.24447550, 20.96209088, 6.35820404, 207.54903568
3, 0.
*SHELL SECTION, ELSET=ELEM_753, COMPOSITE, ORIENTATION=ORI_753
1.51010799, 3, CFRP, 0.
** SOURCE_TET=2925
*ELSET, ELSET=ELEM_754
754
*ORIENTATION, NAME=ORI_754, SYSTEM=RECTANGULAR
22.94678543, 4.79893862, 207.19927553, 21.56680103, 4.81348664, 207.50819527
3, 0.
*SHELL SECTION, ELSET=ELEM_754, COMPOSITE, ORIENTATION=ORI_754
1.50797963, 3, CFRP, 0.
** SOURCE_TET=1757
*ELSET, ELSET=ELEM_755
755
*ORIENTATION, NAME=ORI_755, SYSTEM=RECTANGULAR
18.87861064, 5.03911612, 208.05363066, 17.48853722, 5.02177406, 208.31323638
3, 0.
*SHELL SECTION, ELSET=ELEM_755, COMPOSITE, ORIENTATION=ORI_755
1.57348442, 3, CFRP, 0.
** SOURCE_TET=6520
*ELSET, ELSET=ELEM_756
756
*ORIENTATION, NAME=ORI_756, SYSTEM=RECTANGULAR
46.23495276, 83.72807723, 136.60089765, 45.49676460, 83.74603763, 137.80703017
3, 0.
*SHELL SECTION, ELSET=ELEM_756, COMPOSITE, ORIENTATION=ORI_756
1.26162970, 3, CFRP, 0.
** SOURCE_TET=2856
*ELSET, ELSET=ELEM_757
757
*ORIENTATION, NAME=ORI_757, SYSTEM=RECTANGULAR
54.72408577, 75.33001745, 143.80257680, 53.95953049, 75.36371170, 144.99182863
3, 0.
*SHELL SECTION, ELSET=ELEM_757, COMPOSITE, ORIENTATION=ORI_757
1.26397514, 3, CFRP, 0.
** SOURCE_TET=2777
*ELSET, ELSET=ELEM_758
758
*ORIENTATION, NAME=ORI_758, SYSTEM=RECTANGULAR
63.78285124, 70.55051763, 137.41738814, 63.04502879, 70.70309519, 138.61419143
3, 0.
*SHELL SECTION, ELSET=ELEM_758, COMPOSITE, ORIENTATION=ORI_758
1.26187563, 3, CFRP, 0.
** SOURCE_TET=3420
*ELSET, ELSET=ELEM_759
759
*ORIENTATION, NAME=ORI_759, SYSTEM=RECTANGULAR
67.81430503, -67.46136635, 136.02290597, 68.04008023, -66.76388845, 137.23226536
3, 0.
*SHELL SECTION, ELSET=ELEM_759, COMPOSITE, ORIENTATION=ORI_759
1.26179767, 3, CFRP, 0.
** SOURCE_TET=6788
*ELSET, ELSET=ELEM_760
760
*ORIENTATION, NAME=ORI_760, SYSTEM=RECTANGULAR
58.78859007, -72.94794667, 142.64186005, 59.01885630, -72.21972678, 143.83210088
3, 0.
*SHELL SECTION, ELSET=ELEM_760, COMPOSITE, ORIENTATION=ORI_760
1.26295924, 3, CFRP, 0.
** SOURCE_TET=7421
*ELSET, ELSET=ELEM_761
761
*ORIENTATION, NAME=ORI_761, SYSTEM=RECTANGULAR
49.89732841, -81.33271081, 136.81501958, 50.27460678, -80.70156303, 138.02304007
3, 0.
*SHELL SECTION, ELSET=ELEM_761, COMPOSITE, ORIENTATION=ORI_761
1.26249552, 3, CFRP, 0.
** SOURCE_TET=6274
*ELSET, ELSET=ELEM_762
762
*ORIENTATION, NAME=ORI_762, SYSTEM=RECTANGULAR
-88.37704098, 37.88107423, 134.12037539, -88.37703108, 37.16748019, 135.34135187
3, 0.
*SHELL SECTION, ELSET=ELEM_762, COMPOSITE, ORIENTATION=ORI_762
1.26165080, 3, CFRP, 0.
** SOURCE_TET=5623
*ELSET, ELSET=ELEM_763
763
*ORIENTATION, NAME=ORI_763, SYSTEM=RECTANGULAR
-76.49186425, 58.95178701, 132.97835925, -76.67979724, 58.26662865, 134.20115899
3, 0.
*SHELL SECTION, ELSET=ELEM_763, COMPOSITE, ORIENTATION=ORI_763
1.26119053, 3, CFRP, 0.
** SOURCE_TET=6944
*ELSET, ELSET=ELEM_764
764
*ORIENTATION, NAME=ORI_764, SYSTEM=RECTANGULAR
-81.80749091, 48.53795677, 138.61223288, -81.79326434, 47.78498715, 139.80924347
3, 0.
*SHELL SECTION, ELSET=ELEM_764, COMPOSITE, ORIENTATION=ORI_764
1.26238143, 3, CFRP, 0.
** SOURCE_TET=6187
*ELSET, ELSET=ELEM_765
765
*ORIENTATION, NAME=ORI_765, SYSTEM=RECTANGULAR
-87.24366664, -38.82474540, 136.70193267, -86.67053967, -39.29539530, 137.90609800
3, 0.
*SHELL SECTION, ELSET=ELEM_765, COMPOSITE, ORIENTATION=ORI_765
1.26173162, 3, CFRP, 0.
** SOURCE_TET=6208
*ELSET, ELSET=ELEM_766
766
*ORIENTATION, NAME=ORI_766, SYSTEM=RECTANGULAR
-80.08391579, -47.95947533, 143.57605502, -79.38097966, -48.28177064, 144.76011859
3, 0.
*SHELL SECTION, ELSET=ELEM_766, COMPOSITE, ORIENTATION=ORI_766
1.26298559, 3, CFRP, 0.
** SOURCE_TET=3400
*ELSET, ELSET=ELEM_767
767
*ORIENTATION, NAME=ORI_767, SYSTEM=RECTANGULAR
-75.24335160, -58.04971787, 137.99197970, -74.55527653, -58.34605983, 139.19145215
3, 0.
*SHELL SECTION, ELSET=ELEM_767, COMPOSITE, ORIENTATION=ORI_767
1.26198733, 3, CFRP, 0.
** SOURCE_TET=870
*ELSET, ELSET=ELEM_768
768
*ORIENTATION, NAME=ORI_768, SYSTEM=RECTANGULAR
-1.52735328, -18.78640895, 208.18328808, -1.05479358, -17.47697964, 208.43245113
3, 0.
*SHELL SECTION, ELSET=ELEM_768, COMPOSITE, ORIENTATION=ORI_768
1.58414364, 3, CFRP, 0.
** SOURCE_TET=2203
*ELSET, ELSET=ELEM_769
769
*ORIENTATION, NAME=ORI_769, SYSTEM=RECTANGULAR
0.69711051, -19.79872932, 207.99596758, 0.95846483, -18.43412198, 208.25967332
3, 0.
*SHELL SECTION, ELSET=ELEM_769, COMPOSITE, ORIENTATION=ORI_769
1.55823159, 3, CFRP, 0.
** SOURCE_TET=1478
*ELSET, ELSET=ELEM_770
770
*ORIENTATION, NAME=ORI_770, SYSTEM=RECTANGULAR
2.41134730, -18.50101629, 208.22741041, 2.50369300, -17.11265363, 208.48023726
3, 0.
*SHELL SECTION, ELSET=ELEM_770, COMPOSITE, ORIENTATION=ORI_770
1.58611202, 3, CFRP, 0.
** SOURCE_TET=2413
*ELSET, ELSET=ELEM_771
771
*ORIENTATION, NAME=ORI_771, SYSTEM=RECTANGULAR
-3.49172159, -20.04348904, 207.88488330, -2.92994591, -18.77360842, 208.15285961
3, 0.
*SHELL SECTION, ELSET=ELEM_771, COMPOSITE, ORIENTATION=ORI_771
1.55981147, 3, CFRP, 0.
** SOURCE_TET=3671
*ELSET, ELSET=ELEM_772
772
*ORIENTATION, NAME=ORI_772, SYSTEM=RECTANGULAR
-5.35434723, -19.09977516, 207.99259310, -4.69636746, -17.87619817, 208.25702074
3, 0.
*SHELL SECTION, ELSET=ELEM_772, COMPOSITE, ORIENTATION=ORI_772
1.56703782, 3, CFRP, 0.
** SOURCE_TET=1427
*ELSET, ELSET=ELEM_773
773
*ORIENTATION, NAME=ORI_773, SYSTEM=RECTANGULAR
-5.33822683, -16.81899533, 208.41639644, -4.65083662, -15.60545062, 208.65049885
3, 0.
*SHELL SECTION, ELSET=ELEM_773, COMPOSITE, ORIENTATION=ORI_773
1.58944488, 3, CFRP, 0.
** SOURCE_TET=907
*ELSET, ELSET=ELEM_774
774
*ORIENTATION, NAME=ORI_774, SYSTEM=RECTANGULAR
-2.61187121, 18.65899028, 208.18728663, -2.70511860, 17.27024763, 208.43768386
3, 0.
*SHELL SECTION, ELSET=ELEM_774, COMPOSITE, ORIENTATION=ORI_774
1.57421017, 3, CFRP, 0.
** SOURCE_TET=952
*ELSET, ELSET=ELEM_775
775
*ORIENTATION, NAME=ORI_775, SYSTEM=RECTANGULAR
-0.42878185, 19.75015850, 208.00891546, -0.71328794, 18.39010365, 208.27217782
3, 0.
*SHELL SECTION, ELSET=ELEM_775, COMPOSITE, ORIENTATION=ORI_775
1.55397749, 3, CFRP, 0.
** SOURCE_TET=977
*ELSET, ELSET=ELEM_776
776
*ORIENTATION, NAME=ORI_776, SYSTEM=RECTANGULAR
1.55275188, 18.61434603, 208.22038608, 1.10008807, 17.29735715, 208.46662938
3, 0.
*SHELL SECTION, ELSET=ELEM_776, COMPOSITE, ORIENTATION=ORI_776
1.57768500, 3, CFRP, 0.
** SOURCE_TET=1945
*ELSET, ELSET=ELEM_777
777
*ORIENTATION, NAME=ORI_777, SYSTEM=RECTANGULAR
-4.57657186, 19.81203936, 207.88862845, -4.58197541, 18.42393758, 208.15908038
3, 0.
*SHELL SECTION, ELSET=ELEM_777, COMPOSITE, ORIENTATION=ORI_777
1.55198407, 3, CFRP, 0.
** SOURCE_TET=1370
*ELSET, ELSET=ELEM_778
778
*ORIENTATION, NAME=ORI_778, SYSTEM=RECTANGULAR
-6.76687731, 18.72342860, 207.97617143, -6.57242821, 17.34812601, 208.24212698
3, 0.
*SHELL SECTION, ELSET=ELEM_778, COMPOSITE, ORIENTATION=ORI_778
1.55725145, 3, CFRP, 0.
** SOURCE_TET=344
*ELSET, ELSET=ELEM_779
779
*ORIENTATION, NAME=ORI_779, SYSTEM=RECTANGULAR
-6.89879932, 16.46247179, 208.37188741, -6.64742292, 15.09123668, 208.60963560
3, 0.
*SHELL SECTION, ELSET=ELEM_779, COMPOSITE, ORIENTATION=ORI_779
1.58892810, 3, CFRP, 0.
** SOURCE_TET=4047
*ELSET, ELSET=ELEM_780
780
*ORIENTATION, NAME=ORI_780, SYSTEM=RECTANGULAR
83.32018159, 25.62610303, 157.11550081, 82.54873380, 26.03987837, 158.22620251
3, 0.
*SHELL SECTION, ELSET=ELEM_780, COMPOSITE, ORIENTATION=ORI_780
1.26830816, 3, CFRP, 0.
** SOURCE_TET=4393
*ELSET, ELSET=ELEM_781
781
*ORIENTATION, NAME=ORI_781, SYSTEM=RECTANGULAR
76.03181097, 30.90163211, 165.72140144, 75.15039057, 31.15208722, 166.79860629
3, 0.
*SHELL SECTION, ELSET=ELEM_781, COMPOSITE, ORIENTATION=ORI_781
1.27376091, 3, CFRP, 0.
** SOURCE_TET=6173
*ELSET, ELSET=ELEM_782
782
*ORIENTATION, NAME=ORI_782, SYSTEM=RECTANGULAR
71.08725971, 25.93518094, 174.48051223, 70.11214439, 26.17352475, 175.47667604
3, 0.
*SHELL SECTION, ELSET=ELEM_782, COMPOSITE, ORIENTATION=ORI_782
1.28157949, 3, CFRP, 0.
** SOURCE_TET=6665
*ELSET, ELSET=ELEM_783
783
*ORIENTATION, NAME=ORI_783, SYSTEM=RECTANGULAR
71.82499146, 18.40753877, 176.50539466, 70.84499595, 18.70540928, 177.48052641
3, 0.
*SHELL SECTION, ELSET=ELEM_783, COMPOSITE, ORIENTATION=ORI_783
1.28314638, 3, CFRP, 0.
** SOURCE_TET=6231
*ELSET, ELSET=ELEM_784
784
*ORIENTATION, NAME=ORI_784, SYSTEM=RECTANGULAR
76.20683509, -28.35737633, 167.38251812, 75.73659315, -27.56308841, 168.45395604
3, 0.
*SHELL SECTION, ELSET=ELEM_784, COMPOSITE, ORIENTATION=ORI_784
1.27433300, 3, CFRP, 0.
** SOURCE_TET=4117
*ELSET, ELSET=ELEM_785
785
*ORIENTATION, NAME=ORI_785, SYSTEM=RECTANGULAR
80.76276993, -29.65707871, 159.51127045, 80.35750902, -28.86380835, 160.60967190
3, 0.
*SHELL SECTION, ELSET=ELEM_785, COMPOSITE, ORIENTATION=ORI_785
1.27039492, 3, CFRP, 0.
** SOURCE_TET=5484
*ELSET, ELSET=ELEM_786
786
*ORIENTATION, NAME=ORI_786, SYSTEM=RECTANGULAR
85.56273691, -22.35234289, 155.13894603, 85.13279944, -21.60931980, 156.26281011
3, 0.
*SHELL SECTION, ELSET=ELEM_786, COMPOSITE, ORIENTATION=ORI_786
1.26734698, 3, CFRP, 0.
** SOURCE_TET=7086
*ELSET, ELSET=ELEM_787
787
*ORIENTATION, NAME=ORI_787, SYSTEM=RECTANGULAR
74.79299737, -20.35361351, 172.63155216, 74.12411649, -19.62071428, 173.63925107
3, 0.
*SHELL SECTION, ELSET=ELEM_787, COMPOSITE, ORIENTATION=ORI_787
1.28001666, 3, CFRP, 0.
** SOURCE_TET=2485
*ELSET, ELSET=ELEM_788
788
*ORIENTATION, NAME=ORI_788, SYSTEM=RECTANGULAR
13.50285940, -9.45515874, 208.60796346, 12.58369099, -8.40200877, 208.82245023
3, 0.
*SHELL SECTION, ELSET=ELEM_788, COMPOSITE, ORIENTATION=ORI_788
1.59110999, 3, CFRP, 0.
** SOURCE_TET=2518
*ELSET, ELSET=ELEM_789
789
*ORIENTATION, NAME=ORI_789, SYSTEM=RECTANGULAR
14.39232984, -7.06171696, 208.68464585, 13.29401154, -6.19614799, 208.89556587
3, 0.
*SHELL SECTION, ELSET=ELEM_789, COMPOSITE, ORIENTATION=ORI_789
1.59114540, 3, CFRP, 0.
** SOURCE_TET=2549
*ELSET, ELSET=ELEM_790
790
*ORIENTATION, NAME=ORI_790, SYSTEM=RECTANGULAR
13.50653679, -4.79106302, 208.94714856, 12.32581052, -4.03416817, 209.12879565
3, 0.
*SHELL SECTION, ELSET=ELEM_790, COMPOSITE, ORIENTATION=ORI_790
1.59347689, 3, CFRP, 0.
** SOURCE_TET=1074
*ELSET, ELSET=ELEM_791
791
*ORIENTATION, NAME=ORI_791, SYSTEM=RECTANGULAR
14.96763804, -11.39822836, 208.19276286, 14.11023347, -10.30105232, 208.43987040
3, 0.
*SHELL SECTION, ELSET=ELEM_791, COMPOSITE, ORIENTATION=ORI_791
1.58350801, 3, CFRP, 0.
** SOURCE_TET=2649
*ELSET, ELSET=ELEM_792
792
*ORIENTATION, NAME=ORI_792, SYSTEM=RECTANGULAR
14.28707979, -13.72064373, 207.99896230, 13.53048872, -12.55509809, 208.26178032
3, 0.
*SHELL SECTION, ELSET=ELEM_792, COMPOSITE, ORIENTATION=ORI_792
1.56686091, 3, CFRP, 0.
** SOURCE_TET=2207
*ELSET, ELSET=ELEM_793
793
*ORIENTATION, NAME=ORI_793, SYSTEM=RECTANGULAR
12.32285862, -14.39962171, 208.16729781, 11.65215900, -13.18035413, 208.41938625
3, 0.
*SHELL SECTION, ELSET=ELEM_793, COMPOSITE, ORIENTATION=ORI_793
1.58033752, 3, CFRP, 0.
** SOURCE_TET=1577
*ELSET, ELSET=ELEM_794
794
*ORIENTATION, NAME=ORI_794, SYSTEM=RECTANGULAR
12.70251061, 10.16820487, 208.64398013, 11.42455425, 9.60088305, 208.85604970
3, 0.
*SHELL SECTION, ELSET=ELEM_794, COMPOSITE, ORIENTATION=ORI_794
1.59115720, 3, CFRP, 0.
** SOURCE_TET=3036
*ELSET, ELSET=ELEM_795
795
*ORIENTATION, NAME=ORI_795, SYSTEM=RECTANGULAR
13.86428904, 8.01936905, 208.68804989, 12.52888770, 7.60328687, 208.89680550
3, 0.
*SHELL SECTION, ELSET=ELEM_795, COMPOSITE, ORIENTATION=ORI_795
1.59127975, 3, CFRP, 0.
** SOURCE_TET=2403
*ELSET, ELSET=ELEM_796
796
*ORIENTATION, NAME=ORI_796, SYSTEM=RECTANGULAR
13.11202008, 5.84107236, 208.93972560, 11.74206054, 5.54150139, 209.12266848
3, 0.
*SHELL SECTION, ELSET=ELEM_796, COMPOSITE, ORIENTATION=ORI_796
1.59345174, 3, CFRP, 0.
** SOURCE_TET=1008
*ELSET, ELSET=ELEM_797
797
*ORIENTATION, NAME=ORI_797, SYSTEM=RECTANGULAR
14.05941233, 12.03391525, 208.25037964, 12.82335024, 11.39198265, 208.49547770
3, 0.
*SHELL SECTION, ELSET=ELEM_797, COMPOSITE, ORIENTATION=ORI_797
1.58264983, 3, CFRP, 0.
** SOURCE_TET=2432
*ELSET, ELSET=ELEM_798
798
*ORIENTATION, NAME=ORI_798, SYSTEM=RECTANGULAR
13.08179278, 14.21071568, 208.09493144, 11.94355491, 13.41187895, 208.35236964
3, 0.
*SHELL SECTION, ELSET=ELEM_798, COMPOSITE, ORIENTATION=ORI_798
1.58478570, 3, CFRP, 0.
** SOURCE_TET=3356
*ELSET, ELSET=ELEM_799
799
*ORIENTATION, NAME=ORI_799, SYSTEM=RECTANGULAR
11.06166689, 14.65824259, 208.28524399, 9.98620008, 13.77313526, 208.53010347
3, 0.
*SHELL SECTION, ELSET=ELEM_799, COMPOSITE, ORIENTATION=ORI_799
1.58937502, 3, CFRP, 0.
** SOURCE_TET=456
*ELSET, ELSET=ELEM_800
800
*ORIENTATION, NAME=ORI_800, SYSTEM=RECTANGULAR
-10.50790569, 12.54155234, 208.63350262, -9.85746103, 11.30419553, 208.84767509
3, 0.
*SHELL SECTION, ELSET=ELEM_800, COMPOSITE, ORIENTATION=ORI_800
1.59112763, 3, CFRP, 0.
** SOURCE_TET=93
*ELSET, ELSET=ELEM_801
801
*ORIENTATION, NAME=ORI_801, SYSTEM=RECTANGULAR
-8.70856868, 13.40596915, 208.68977876, -8.17714294, 12.11305670, 208.90417113
3, 0.
*SHELL SECTION, ELSET=ELEM_801, COMPOSITE, ORIENTATION=ORI_801
1.59139025, 3, CFRP, 0.
** SOURCE_TET=652
*ELSET, ELSET=ELEM_802
802
*ORIENTATION, NAME=ORI_802, SYSTEM=RECTANGULAR
-9.35942462, -13.46329244, 208.62336523, -8.34157878, -12.50538379, 208.83877386
3, 0.
*SHELL SECTION, ELSET=ELEM_802, COMPOSITE, ORIENTATION=ORI_802
1.59026277, 3, CFRP, 0.
** SOURCE_TET=417
*ELSET, ELSET=ELEM_803
803
*ORIENTATION, NAME=ORI_803, SYSTEM=RECTANGULAR
-7.20526973, -14.03659963, 208.73153421, -6.28445891, -12.98392549, 208.94125923
3, 0.
*SHELL SECTION, ELSET=ELEM_803, COMPOSITE, ORIENTATION=ORI_803
1.59068322, 3, CFRP, 0.
** SOURCE_TET=1512
*ELSET, ELSET=ELEM_804
804
*ORIENTATION, NAME=ORI_804, SYSTEM=RECTANGULAR
17.12530503, -10.78757029, 207.90938758, 16.15405546, -9.79545588, 208.17842895
3, 0.
*SHELL SECTION, ELSET=ELEM_804, COMPOSITE, ORIENTATION=ORI_804
1.55014980, 3, CFRP, 0.
** SOURCE_TET=1900
*ELSET, ELSET=ELEM_805
805
*ORIENTATION, NAME=ORI_805, SYSTEM=RECTANGULAR
17.71353857, -8.51313654, 208.02962827, 16.61135847, -7.66749925, 208.29438590
3, 0.
*SHELL SECTION, ELSET=ELEM_805, COMPOSITE, ORIENTATION=ORI_805
1.56341410, 3, CFRP, 0.
** SOURCE_TET=2728
*ELSET, ELSET=ELEM_806
806
*ORIENTATION, NAME=ORI_806, SYSTEM=RECTANGULAR
16.45257504, -6.76918900, 208.39240176, 15.31609937, -5.96055728, 208.62593501
3, 0.
*SHELL SECTION, ELSET=ELEM_806, COMPOSITE, ORIENTATION=ORI_806
1.59000635, 3, CFRP, 0.
** SOURCE_TET=2713
*ELSET, ELSET=ELEM_807
807
*ORIENTATION, NAME=ORI_807, SYSTEM=RECTANGULAR
18.49003061, -12.54726981, 207.44995022, 17.55209605, -11.53170291, 207.74811569
3, 0.
*SHELL SECTION, ELSET=ELEM_807, COMPOSITE, ORIENTATION=ORI_807
1.52297330, 3, CFRP, 0.
** SOURCE_TET=1992
*ELSET, ELSET=ELEM_808
808
*ORIENTATION, NAME=ORI_808, SYSTEM=RECTANGULAR
17.63021958, -14.80862171, 207.29221842, 16.82397158, -13.68815459, 207.59965557
3, 0.
*SHELL SECTION, ELSET=ELEM_808, COMPOSITE, ORIENTATION=ORI_808
1.50834954, 3, CFRP, 0.
** SOURCE_TET=1954
*ELSET, ELSET=ELEM_809
809
*ORIENTATION, NAME=ORI_809, SYSTEM=RECTANGULAR
15.58662583, -15.37421908, 207.55623249, 14.84857036, -14.20337436, 207.84674367
3, 0.
*SHELL SECTION, ELSET=ELEM_809, COMPOSITE, ORIENTATION=ORI_809
1.53753662, 3, CFRP, 0.
** SOURCE_TET=2593
*ELSET, ELSET=ELEM_810
810
*ORIENTATION, NAME=ORI_810, SYSTEM=RECTANGULAR
20.39345153, -12.01006528, 207.14529919, 19.41115633, -11.04240177, 207.45950212
3, 0.
*SHELL SECTION, ELSET=ELEM_810, COMPOSITE, ORIENTATION=ORI_810
1.50812423, 3, CFRP, 0.
** SOURCE_TET=2087
*ELSET, ELSET=ELEM_811
811
*ORIENTATION, NAME=ORI_811, SYSTEM=RECTANGULAR
21.22117224, -9.66106535, 207.22347407, 20.11989830, -8.82995204, 207.53403224
3, 0.
*SHELL SECTION, ELSET=ELEM_811, COMPOSITE, ORIENTATION=ORI_811
1.51555347, 3, CFRP, 0.
** SOURCE_TET=2748
*ELSET, ELSET=ELEM_812
812
*ORIENTATION, NAME=ORI_812, SYSTEM=RECTANGULAR
19.90951308, -7.97815202, 207.64685025, 18.77205910, -7.18804103, 207.93307231
3, 0.
*SHELL SECTION, ELSET=ELEM_812, COMPOSITE, ORIENTATION=ORI_812
1.53829694, 3, CFRP, 0.
** SOURCE_TET=3053
*ELSET, ELSET=ELEM_813
813
*ORIENTATION, NAME=ORI_813, SYSTEM=RECTANGULAR
18.96821552, -16.53603196, 206.75966569, 18.18532636, -15.40724563, 207.09571029
3, 0.
*SHELL SECTION, ELSET=ELEM_813, COMPOSITE, ORIENTATION=ORI_813
1.48651171, 3, CFRP, 0.
** SOURCE_TET=771
*ELSET, ELSET=ELEM_814
814
*ORIENTATION, NAME=ORI_814, SYSTEM=RECTANGULAR
21.46385625, -15.99778676, 206.31816583, 20.62159009, -14.91987826, 206.67691502
3, 0.
*SHELL SECTION, ELSET=ELEM_814, COMPOSITE, ORIENTATION=ORI_814
1.47238135, 3, CFRP, 0.
** SOURCE_TET=628
*ELSET, ELSET=ELEM_815
815
*ORIENTATION, NAME=ORI_815, SYSTEM=RECTANGULAR
22.03259128, -13.69207378, 206.54875090, 21.07888908, -12.70885002, 206.90049390
3, 0.
*SHELL SECTION, ELSET=ELEM_815, COMPOSITE, ORIENTATION=ORI_815
1.48498893, 3, CFRP, 0.
** SOURCE_TET=2848
*ELSET, ELSET=ELEM_816
816
*ORIENTATION, NAME=ORI_816, SYSTEM=RECTANGULAR
18.19714891, -18.82848157, 206.48840050, 17.49504282, -17.65202575, 206.83911227
3, 0.
*SHELL SECTION, ELSET=ELEM_816, COMPOSITE, ORIENTATION=ORI_816
1.47700942, 3, CFRP, 0.
** SOURCE_TET=1729
*ELSET, ELSET=ELEM_817
817
*ORIENTATION, NAME=ORI_817, SYSTEM=RECTANGULAR
16.17239957, -19.10235504, 206.79264918, 15.52655838, -17.89131568, 207.13363718
3, 0.
*SHELL SECTION, ELSET=ELEM_817, COMPOSITE, ORIENTATION=ORI_817
1.48782694, 3, CFRP, 0.
** SOURCE_TET=2232
*ELSET, ELSET=ELEM_818
818
*ORIENTATION, NAME=ORI_818, SYSTEM=RECTANGULAR
14.88788841, -17.41344695, 207.32807094, 14.27873149, -16.17398430, 207.63247233
3, 0.
*SHELL SECTION, ELSET=ELEM_818, COMPOSITE, ORIENTATION=ORI_818
1.51435208, 3, CFRP, 0.
** SOURCE_TET=1606
*ELSET, ELSET=ELEM_819
819
*ORIENTATION, NAME=ORI_819, SYSTEM=RECTANGULAR
23.27175182, -18.06033817, 205.51858154, 22.44176920, -16.98687494, 205.91708567
3, 0.
*SHELL SECTION, ELSET=ELEM_819, COMPOSITE, ORIENTATION=ORI_819
1.44114673, 3, CFRP, 0.
** SOURCE_TET=1372
*ELSET, ELSET=ELEM_820
820
*ORIENTATION, NAME=ORI_820, SYSTEM=RECTANGULAR
22.18084023, -20.95377252, 205.18269600, 21.47712243, -19.79643459, 205.58932871
3, 0.
*SHELL SECTION, ELSET=ELEM_820, COMPOSITE, ORIENTATION=ORI_820
1.43014121, 3, CFRP, 0.
** SOURCE_TET=1600
*ELSET, ELSET=ELEM_821
821
*ORIENTATION, NAME=ORI_821, SYSTEM=RECTANGULAR
19.60175972, -21.16672901, 205.70520832, 18.95213726, -19.97351676, 206.09793619
3, 0.
*SHELL SECTION, ELSET=ELEM_821, COMPOSITE, ORIENTATION=ORI_821
1.44098270, 3, CFRP, 0.
** SOURCE_TET=1484
*ELSET, ELSET=ELEM_822
822
*ORIENTATION, NAME=ORI_822, SYSTEM=RECTANGULAR
-3.07807699, -22.08483889, 207.46909736, -2.55011690, -20.80635998, 207.76363056
3, 0.
*SHELL SECTION, ELSET=ELEM_822, COMPOSITE, ORIENTATION=ORI_822
1.53347695, 3, CFRP, 0.
** SOURCE_TET=3273
*ELSET, ELSET=ELEM_823
823
*ORIENTATION, NAME=ORI_823, SYSTEM=RECTANGULAR
-0.85998589, -22.91543307, 207.31968364, -0.51741062, -21.57809911, 207.62657134
3, 0.
*SHELL SECTION, ELSET=ELEM_823, COMPOSITE, ORIENTATION=ORI_823
1.51791239, 3, CFRP, 0.
** SOURCE_TET=3257
*ELSET, ELSET=ELEM_824
824
*ORIENTATION, NAME=ORI_824, SYSTEM=RECTANGULAR
0.89129718, -21.92136714, 207.54571199, 1.15068770, -20.56193532, 207.83667882
3, 0.
*SHELL SECTION, ELSET=ELEM_824, COMPOSITE, ORIENTATION=ORI_824
1.52971804, 3, CFRP, 0.
** SOURCE_TET=716
*ELSET, ELSET=ELEM_825
825
*ORIENTATION, NAME=ORI_825, SYSTEM=RECTANGULAR
25.70777508, -17.61755501, 204.99464461, 24.81039367, -16.60666575, 205.41034824
3, 0.
*SHELL SECTION, ELSET=ELEM_825, COMPOSITE, ORIENTATION=ORI_825
1.42144907, 3, CFRP, 0.
** SOURCE_TET=1650
*ELSET, ELSET=ELEM_826
826
*ORIENTATION, NAME=ORI_826, SYSTEM=RECTANGULAR
26.71123206, -12.44297560, 205.50385908, 25.67525568, -11.56609918, 205.90115075
3, 0.
*SHELL SECTION, ELSET=ELEM_826, COMPOSITE, ORIENTATION=ORI_826
1.44398499, 3, CFRP, 0.
** SOURCE_TET=1203
*ELSET, ELSET=ELEM_827
827
*ORIENTATION, NAME=ORI_827, SYSTEM=RECTANGULAR
27.29573912, -14.95621951, 204.99192368, 26.32089485, -14.01433460, 205.39507560
3, 0.
*SHELL SECTION, ELSET=ELEM_827, COMPOSITE, ORIENTATION=ORI_827
1.42173600, 3, CFRP, 0.
** SOURCE_TET=995
*ELSET, ELSET=ELEM_828
828
*ORIENTATION, NAME=ORI_828, SYSTEM=RECTANGULAR
24.05499861, -12.08139054, 206.26361286, 23.02944745, -11.18055905, 206.63340664
3, 0.
*SHELL SECTION, ELSET=ELEM_828, COMPOSITE, ORIENTATION=ORI_828
1.46322989, 3, CFRP, 0.
** SOURCE_TET=2134
*ELSET, ELSET=ELEM_829
829
*ORIENTATION, NAME=ORI_829, SYSTEM=RECTANGULAR
24.24581547, -23.45822853, 204.08342826, 23.54688313, -22.31715763, 204.54108618
3, 0.
*SHELL SECTION, ELSET=ELEM_829, COMPOSITE, ORIENTATION=ORI_829
1.40167236, 3, CFRP, 0.
** SOURCE_TET=2454
*ELSET, ELSET=ELEM_830
830
*ORIENTATION, NAME=ORI_830, SYSTEM=RECTANGULAR
27.58651404, -22.08467086, 203.47343465, 26.81883339, -20.99957320, 203.95637304
3, 0.
*SHELL SECTION, ELSET=ELEM_830, COMPOSITE, ORIENTATION=ORI_830
1.39407015, 3, CFRP, 0.
** SOURCE_TET=932
*ELSET, ELSET=ELEM_831
831
*ORIENTATION, NAME=ORI_831, SYSTEM=RECTANGULAR
27.96355955, -19.10136835, 204.05059763, 27.08490688, -18.09584704, 204.51631897
3, 0.
*SHELL SECTION, ELSET=ELEM_831, COMPOSITE, ORIENTATION=ORI_831
1.40656662, 3, CFRP, 0.
** SOURCE_TET=1949
*ELSET, ELSET=ELEM_832
832
*ORIENTATION, NAME=ORI_832, SYSTEM=RECTANGULAR
22.73816806, -27.03407147, 203.46707605, 22.22098188, -25.80685743, 203.94295853
3, 0.
*SHELL SECTION, ELSET=ELEM_832, COMPOSITE, ORIENTATION=ORI_832
1.39642370, 3, CFRP, 0.
** SOURCE_TET=2674
*ELSET, ELSET=ELEM_833
833
*ORIENTATION, NAME=ORI_833, SYSTEM=RECTANGULAR
19.53983915, -27.28767724, 204.12660572, 19.08992635, -26.02756087, 204.58451969
3, 0.
*SHELL SECTION, ELSET=ELEM_833, COMPOSITE, ORIENTATION=ORI_833
1.40472639, 3, CFRP, 0.
** SOURCE_TET=7243
*ELSET, ELSET=ELEM_834
834
*ORIENTATION, NAME=ORI_834, SYSTEM=RECTANGULAR
18.47092917, -23.94979375, 205.28252578, 17.91106852, -22.71615051, 205.68833414
3, 0.
*SHELL SECTION, ELSET=ELEM_834, COMPOSITE, ORIENTATION=ORI_834
1.43182671, 3, CFRP, 0.
** SOURCE_TET=2455
*ELSET, ELSET=ELEM_835
835
*ORIENTATION, NAME=ORI_835, SYSTEM=RECTANGULAR
25.25209820, -29.97353655, 201.89242288, 24.73743034, -28.76651465, 202.41988390
3, 0.
*SHELL SECTION, ELSET=ELEM_835, COMPOSITE, ORIENTATION=ORI_835
1.36992562, 3, CFRP, 0.
** SOURCE_TET=2140
*ELSET, ELSET=ELEM_836
836
*ORIENTATION, NAME=ORI_836, SYSTEM=RECTANGULAR
29.35494019, -28.31423713, 201.20644766, 28.70119296, -27.18894826, 201.75992711
3, 0.
*SHELL SECTION, ELSET=ELEM_836, COMPOSITE, ORIENTATION=ORI_836
1.37167394, 3, CFRP, 0.
** SOURCE_TET=2861
*ELSET, ELSET=ELEM_837
837
*ORIENTATION, NAME=ORI_837, SYSTEM=RECTANGULAR
30.19057548, -23.98455978, 202.18236989, 29.43608440, -22.90480104, 202.69701953
3, 0.
*SHELL SECTION, ELSET=ELEM_837, COMPOSITE, ORIENTATION=ORI_837
1.38026237, 3, CFRP, 0.
** SOURCE_TET=3952
*ELSET, ELSET=ELEM_838
838
*ORIENTATION, NAME=ORI_838, SYSTEM=RECTANGULAR
23.81315871, -34.36268883, 200.71137437, 23.40255908, -33.13284522, 201.27608018
3, 0.
*SHELL SECTION, ELSET=ELEM_838, COMPOSITE, ORIENTATION=ORI_838
1.36099589, 3, CFRP, 0.
** SOURCE_TET=5883
*ELSET, ELSET=ELEM_839
839
*ORIENTATION, NAME=ORI_839, SYSTEM=RECTANGULAR
19.05728096, -36.06401710, 201.17082475, 18.80188168, -34.78372169, 201.71452953
3, 0.
*SHELL SECTION, ELSET=ELEM_839, COMPOSITE, ORIENTATION=ORI_839
1.36583734, 3, CFRP, 0.
** SOURCE_TET=3548
*ELSET, ELSET=ELEM_840
840
*ORIENTATION, NAME=ORI_840, SYSTEM=RECTANGULAR
16.30632574, -33.32832237, 202.74321275, 16.06402327, -32.03247322, 203.25513509
3, 0.
*SHELL SECTION, ELSET=ELEM_840, COMPOSITE, ORIENTATION=ORI_840
1.37940311, 3, CFRP, 0.
** SOURCE_TET=3391
*ELSET, ELSET=ELEM_841
841
*ORIENTATION, NAME=ORI_841, SYSTEM=RECTANGULAR
17.21931823, -29.58923905, 203.89057460, 16.86486281, -28.30278633, 204.35897696
3, 0.
*SHELL SECTION, ELSET=ELEM_841, COMPOSITE, ORIENTATION=ORI_841
1.40128386, 3, CFRP, 0.
** SOURCE_TET=3220
*ELSET, ELSET=ELEM_842
842
*ORIENTATION, NAME=ORI_842, SYSTEM=RECTANGULAR
27.26694467, -37.76115085, 198.31990329, 26.87190429, -36.55866416, 198.95075103
3, 0.
*SHELL SECTION, ELSET=ELEM_842, COMPOSITE, ORIENTATION=ORI_842
1.34671950, 3, CFRP, 0.
** SOURCE_TET=5259
*ELSET, ELSET=ELEM_843
843
*ORIENTATION, NAME=ORI_843, SYSTEM=RECTANGULAR
32.21055455, -36.03758982, 197.37621604, 31.72378056, -34.87771189, 198.02253970
3, 0.
*SHELL SECTION, ELSET=ELEM_843, COMPOSITE, ORIENTATION=ORI_843
1.33608520, 3, CFRP, 0.
** SOURCE_TET=4390
*ELSET, ELSET=ELEM_844
844
*ORIENTATION, NAME=ORI_844, SYSTEM=RECTANGULAR
32.85522895, -30.98300231, 199.07223419, 32.22432985, -29.87602264, 199.68588093
3, 0.
*SHELL SECTION, ELSET=ELEM_844, COMPOSITE, ORIENTATION=ORI_844
1.34902501, 3, CFRP, 0.
** SOURCE_TET=4543
*ELSET, ELSET=ELEM_845
845
*ORIENTATION, NAME=ORI_845, SYSTEM=RECTANGULAR
25.76924049, -43.07775976, 196.28704767, 25.53287141, -41.85535283, 196.95775696
3, 0.
*SHELL SECTION, ELSET=ELEM_845, COMPOSITE, ORIENTATION=ORI_845
1.33359933, 3, CFRP, 0.
** SOURCE_TET=5696
*ELSET, ELSET=ELEM_846
846
*ORIENTATION, NAME=ORI_846, SYSTEM=RECTANGULAR
21.12044514, -44.41418896, 196.89941947, 20.96855786, -43.17232461, 197.55873973
3, 0.
*SHELL SECTION, ELSET=ELEM_846, COMPOSITE, ORIENTATION=ORI_846
1.33596611, 3, CFRP, 0.
** SOURCE_TET=4859
*ELSET, ELSET=ELEM_847
847
*ORIENTATION, NAME=ORI_847, SYSTEM=RECTANGULAR
17.86734141, -40.80277508, 199.40515296, 17.70778714, -39.53251459, 200.00596967
3, 0.
*SHELL SECTION, ELSET=ELEM_847, COMPOSITE, ORIENTATION=ORI_847
1.35389078, 3, CFRP, 0.
** SOURCE_TET=4658
*ELSET, ELSET=ELEM_848
848
*ORIENTATION, NAME=ORI_848, SYSTEM=RECTANGULAR
29.46526561, -46.74028687, 193.13987423, 29.23442553, -45.55492383, 193.87582756
3, 0.
*SHELL SECTION, ELSET=ELEM_848, COMPOSITE, ORIENTATION=ORI_848
1.31668329, 3, CFRP, 0.
** SOURCE_TET=5159
*ELSET, ELSET=ELEM_849
849
*ORIENTATION, NAME=ORI_849, SYSTEM=RECTANGULAR
35.39877800, -44.45328937, 192.02640268, 35.03579962, -43.31737055, 192.78662313
3, 0.
*SHELL SECTION, ELSET=ELEM_849, COMPOSITE, ORIENTATION=ORI_849
1.31345916, 3, CFRP, 0.
** SOURCE_TET=4774
*ELSET, ELSET=ELEM_850
850
*ORIENTATION, NAME=ORI_850, SYSTEM=RECTANGULAR
36.64572990, -39.05892971, 194.21982730, 36.18347590, -37.93489427, 194.94292174
3, 0.
*SHELL SECTION, ELSET=ELEM_850, COMPOSITE, ORIENTATION=ORI_850
1.32456636, 3, CFRP, 0.
** SOURCE_TET=5391
*ELSET, ELSET=ELEM_851
851
*ORIENTATION, NAME=ORI_851, SYSTEM=RECTANGULAR
27.23373707, -52.15070488, 190.61945468, 27.10822926, -50.98584139, 191.41150319
3, 0.
*SHELL SECTION, ELSET=ELEM_851, COMPOSITE, ORIENTATION=ORI_851
1.31056190, 3, CFRP, 0.
** SOURCE_TET=6000
*ELSET, ELSET=ELEM_852
852
*ORIENTATION, NAME=ORI_852, SYSTEM=RECTANGULAR
20.68141318, -53.62301309, 191.57136666, 20.70068452, -52.43497142, 192.33829925
3, 0.
*SHELL SECTION, ELSET=ELEM_852, COMPOSITE, ORIENTATION=ORI_852
1.31377387, 3, CFRP, 0.
** SOURCE_TET=5189
*ELSET, ELSET=ELEM_853
853
*ORIENTATION, NAME=ORI_853, SYSTEM=RECTANGULAR
18.26425276, -49.55048953, 194.70640336, 18.26963938, -48.33197159, 195.42416726
3, 0.
*SHELL SECTION, ELSET=ELEM_853, COMPOSITE, ORIENTATION=ORI_853
1.32235849, 3, CFRP, 0.
** SOURCE_TET=7166
*ELSET, ELSET=ELEM_854
854
*ORIENTATION, NAME=ORI_854, SYSTEM=RECTANGULAR
-4.94904867, -23.67955464, 206.99685666, -4.35340586, -22.43958236, 207.32500053
3, 0.
*SHELL SECTION, ELSET=ELEM_854, COMPOSITE, ORIENTATION=ORI_854
1.51058567, 3, CFRP, 0.
** SOURCE_TET=431
*ELSET, ELSET=ELEM_855
855
*ORIENTATION, NAME=ORI_855, SYSTEM=RECTANGULAR
-7.31811283, -23.00946835, 207.00464962, -6.62369898, -21.82187197, 207.33237549
3, 0.
*SHELL SECTION, ELSET=ELEM_855, COMPOSITE, ORIENTATION=ORI_855
1.51096404, 3, CFRP, 0.
** SOURCE_TET=1661
*ELSET, ELSET=ELEM_856
856
*ORIENTATION, NAME=ORI_856, SYSTEM=RECTANGULAR
-7.31122273, -20.47207302, 207.58767215, -6.58677112, -19.29357867, 207.88147640
3, 0.
*SHELL SECTION, ELSET=ELEM_856, COMPOSITE, ORIENTATION=ORI_856
1.54021227, 3, CFRP, 0.
** SOURCE_TET=923
*ELSET, ELSET=ELEM_857
857
*ORIENTATION, NAME=ORI_857, SYSTEM=RECTANGULAR
-3.47833183, -25.74200074, 206.52389838, -2.98081712, -24.46732453, 206.88122130
3, 0.
*SHELL SECTION, ELSET=ELEM_857, COMPOSITE, ORIENTATION=ORI_857
1.46899021, 3, CFRP, 0.
** SOURCE_TET=867
*ELSET, ELSET=ELEM_858
858
*ORIENTATION, NAME=ORI_858, SYSTEM=RECTANGULAR
-0.77687707, -25.04033063, 206.78640397, -0.43586805, -23.71065662, 207.12652140
3, 0.
*SHELL SECTION, ELSET=ELEM_858, COMPOSITE, ORIENTATION=ORI_858
1.49503374, 3, CFRP, 0.
** SOURCE_TET=2834
*ELSET, ELSET=ELEM_859
859
*ORIENTATION, NAME=ORI_859, SYSTEM=RECTANGULAR
32.75065852, -16.92786626, 202.83200811, 31.78894988, -16.01461438, 203.32301475
3, 0.
*SHELL SECTION, ELSET=ELEM_859, COMPOSITE, ORIENTATION=ORI_859
1.38491881, 3, CFRP, 0.
** SOURCE_TET=1275
*ELSET, ELSET=ELEM_860
860
*ORIENTATION, NAME=ORI_860, SYSTEM=RECTANGULAR
29.54832397, -16.44368870, 204.03805935, 28.60083034, -15.50283555, 204.50394686
3, 0.
*SHELL SECTION, ELSET=ELEM_860, COMPOSITE, ORIENTATION=ORI_860
1.40682542, 3, CFRP, 0.
** SOURCE_TET=2952
*ELSET, ELSET=ELEM_861
861
*ORIENTATION, NAME=ORI_861, SYSTEM=RECTANGULAR
33.76601792, -21.48365975, 201.53615601, 32.89705233, -20.51310342, 202.08653698
3, 0.
*SHELL SECTION, ELSET=ELEM_861, COMPOSITE, ORIENTATION=ORI_861
1.37253881, 3, CFRP, 0.
** SOURCE_TET=1061
*ELSET, ELSET=ELEM_862
862
*ORIENTATION, NAME=ORI_862, SYSTEM=RECTANGULAR
-14.38369486, -12.23508010, 208.18290484, -13.12857010, -11.63155592, 208.42871048
3, 0.
*SHELL SECTION, ELSET=ELEM_862, COMPOSITE, ORIENTATION=ORI_862
1.58912253, 3, CFRP, 0.
** SOURCE_TET=7127
*ELSET, ELSET=ELEM_863
863
*ORIENTATION, NAME=ORI_863, SYSTEM=RECTANGULAR
-13.44699027, -14.35270877, 208.02696209, -12.25882603, -13.63064754, 208.28559951
3, 0.
*SHELL SECTION, ELSET=ELEM_863, COMPOSITE, ORIENTATION=ORI_863
1.56162882, 3, CFRP, 0.
** SOURCE_TET=1990
*ELSET, ELSET=ELEM_864
864
*ORIENTATION, NAME=ORI_864, SYSTEM=RECTANGULAR
-11.13708520, -14.98600015, 208.22146687, -10.09721155, -14.06009219, 208.46917078
3, 0.
*SHELL SECTION, ELSET=ELEM_864, COMPOSITE, ORIENTATION=ORI_864
1.58605719, 3, CFRP, 0.
** SOURCE_TET=1220
*ELSET, ELSET=ELEM_865
865
*ORIENTATION, NAME=ORI_865, SYSTEM=RECTANGULAR
-4.01166291, -28.58640296, 205.68024272, -3.50405135, -27.32619748, 206.07294190
3, 0.
*SHELL SECTION, ELSET=ELEM_865, COMPOSITE, ORIENTATION=ORI_865
1.44637048, 3, CFRP, 0.
** SOURCE_TET=2290
*ELSET, ELSET=ELEM_866
866
*ORIENTATION, NAME=ORI_866, SYSTEM=RECTANGULAR
-7.30282567, -29.56658586, 205.17303290, -6.67723416, -28.36645784, 205.58331086
3, 0.
*SHELL SECTION, ELSET=ELEM_866, COMPOSITE, ORIENTATION=ORI_866
1.42625356, 3, CFRP, 0.
** SOURCE_TET=7270
*ELSET, ELSET=ELEM_867
867
*ORIENTATION, NAME=ORI_867, SYSTEM=RECTANGULAR
-9.71930723, -27.26814508, 205.66708494, -8.97748290, -26.13059005, 206.06162927
3, 0.
*SHELL SECTION, ELSET=ELEM_867, COMPOSITE, ORIENTATION=ORI_867
1.44739449, 3, CFRP, 0.
** SOURCE_TET=1016
*ELSET, ELSET=ELEM_868
868
*ORIENTATION, NAME=ORI_868, SYSTEM=RECTANGULAR
-9.27572983, -24.34180643, 206.51860816, -8.51708358, -23.19947190, 206.86433593
3, 0.
*SHELL SECTION, ELSET=ELEM_868, COMPOSITE, ORIENTATION=ORI_868
1.47033548, 3, CFRP, 0.
** SOURCE_TET=7202
*ELSET, ELSET=ELEM_869
869
*ORIENTATION, NAME=ORI_869, SYSTEM=RECTANGULAR
1.18773648, -26.15203799, 206.48624339, 1.45050527, -24.80791841, 206.83879852
3, 0.
*SHELL SECTION, ELSET=ELEM_869, COMPOSITE, ORIENTATION=ORI_869
1.48409319, 3, CFRP, 0.
** SOURCE_TET=2217
*ELSET, ELSET=ELEM_870
870
*ORIENTATION, NAME=ORI_870, SYSTEM=RECTANGULAR
3.28438396, -24.87292613, 206.78079272, 3.45288606, -23.50904256, 207.11460202
3, 0.
*SHELL SECTION, ELSET=ELEM_870, COMPOSITE, ORIENTATION=ORI_870
1.49496949, 3, CFRP, 0.
** SOURCE_TET=2547
*ELSET, ELSET=ELEM_871
871
*ORIENTATION, NAME=ORI_871, SYSTEM=RECTANGULAR
3.07135292, -22.76577059, 207.30365847, 3.23401272, -21.39479195, 207.61018638
3, 0.
*SHELL SECTION, ELSET=ELEM_871, COMPOSITE, ORIENTATION=ORI_871
1.51776361, 3, CFRP, 0.
** SOURCE_TET=1218
*ELSET, ELSET=ELEM_872
872
*ORIENTATION, NAME=ORI_872, SYSTEM=RECTANGULAR
1.31299659, -29.06739585, 205.61983757, 1.60024517, -27.74041501, 206.01557751
3, 0.
*SHELL SECTION, ELSET=ELEM_872, COMPOSITE, ORIENTATION=ORI_872
1.43648994, 3, CFRP, 0.
** SOURCE_TET=1205
*ELSET, ELSET=ELEM_873
873
*ORIENTATION, NAME=ORI_873, SYSTEM=RECTANGULAR
-1.18446679, -30.80055198, 205.07994688, -0.80953684, -29.50098315, 205.49292193
3, 0.
*SHELL SECTION, ELSET=ELEM_873, COMPOSITE, ORIENTATION=ORI_873
1.42549181, 3, CFRP, 0.
** SOURCE_TET=3965
*ELSET, ELSET=ELEM_874
874
*ORIENTATION, NAME=ORI_874, SYSTEM=RECTANGULAR
30.76333284, -55.52352869, 187.00190764, 30.65366194, -54.39383011, 187.84556243
3, 0.
*SHELL SECTION, ELSET=ELEM_874, COMPOSITE, ORIENTATION=ORI_874
1.30332947, 3, CFRP, 0.
** SOURCE_TET=5735
*ELSET, ELSET=ELEM_875
875
*ORIENTATION, NAME=ORI_875, SYSTEM=RECTANGULAR
39.58191558, -47.88686866, 188.05735258, 39.25563860, -46.78888253, 188.88679203
3, 0.
*SHELL SECTION, ELSET=ELEM_875, COMPOSITE, ORIENTATION=ORI_875
1.30493784, 3, CFRP, 0.
** SOURCE_TET=5800
*ELSET, ELSET=ELEM_876
876
*ORIENTATION, NAME=ORI_876, SYSTEM=RECTANGULAR
37.18094832, -53.53392309, 185.54965080, 36.98864967, -52.42804223, 186.40991167
3, 0.
*SHELL SECTION, ELSET=ELEM_876, COMPOSITE, ORIENTATION=ORI_876
1.29693854, 3, CFRP, 0.
** SOURCE_TET=5905
*ELSET, ELSET=ELEM_877
877
*ORIENTATION, NAME=ORI_877, SYSTEM=RECTANGULAR
17.55195807, -58.97961021, 188.49974523, 17.70310119, -57.83464389, 189.31596083
3, 0.
*SHELL SECTION, ELSET=ELEM_877, COMPOSITE, ORIENTATION=ORI_877
1.30383384, 3, CFRP, 0.
** SOURCE_TET=5657
*ELSET, ELSET=ELEM_878
878
*ORIENTATION, NAME=ORI_878, SYSTEM=RECTANGULAR
21.99861765, -63.51164680, 183.60670705, 22.11259598, -62.42552994, 184.50523868
3, 0.
*SHELL SECTION, ELSET=ELEM_878, COMPOSITE, ORIENTATION=ORI_878
1.29500830, 3, CFRP, 0.
** SOURCE_TET=6394
*ELSET, ELSET=ELEM_879
879
*ORIENTATION, NAME=ORI_879, SYSTEM=RECTANGULAR
28.63890220, -61.54251289, 183.05527203, 28.67194060, -60.45449081, 183.95811001
3, 0.
*SHELL SECTION, ELSET=ELEM_879, COMPOSITE, ORIENTATION=ORI_879
1.29417157, 3, CFRP, 0.
** SOURCE_TET=4780
*ELSET, ELSET=ELEM_880
880
*ORIENTATION, NAME=ORI_880, SYSTEM=RECTANGULAR
10.41691501, -60.19213208, 188.82668900, 10.69088263, -59.06561386, 189.63656458
3, 0.
*SHELL SECTION, ELSET=ELEM_880, COMPOSITE, ORIENTATION=ORI_880
1.30746698, 3, CFRP, 0.
** SOURCE_TET=4250
*ELSET, ELSET=ELEM_881
881
*ORIENTATION, NAME=ORI_881, SYSTEM=RECTANGULAR
5.56271190, -55.53667373, 192.61899292, 5.87444502, -54.37232415, 193.35866348
3, 0.
*SHELL SECTION, ELSET=ELEM_881, COMPOSITE, ORIENTATION=ORI_881
1.31627166, 3, CFRP, 0.
** SOURCE_TET=3648
*ELSET, ELSET=ELEM_882
882
*ORIENTATION, NAME=ORI_882, SYSTEM=RECTANGULAR
8.02519206, -50.85674355, 195.45368523, 8.26949503, -49.66135427, 196.16878001
3, 0.
*SHELL SECTION, ELSET=ELEM_882, COMPOSITE, ORIENTATION=ORI_882
1.32453525, 3, CFRP, 0.
** SOURCE_TET=6258
*ELSET, ELSET=ELEM_883
883
*ORIENTATION, NAME=ORI_883, SYSTEM=RECTANGULAR
13.74075123, -49.04774798, 195.88588934, 13.82646329, -47.81734325, 196.57781248
3, 0.
*SHELL SECTION, ELSET=ELEM_883, COMPOSITE, ORIENTATION=ORI_883
1.33151388, 3, CFRP, 0.
** SOURCE_TET=5697
*ELSET, ELSET=ELEM_884
884
*ORIENTATION, NAME=ORI_884, SYSTEM=RECTANGULAR
6.97662480, -66.10949547, 184.26587150, 7.36406030, -65.07493395, 185.14880762
3, 0.
*SHELL SECTION, ELSET=ELEM_884, COMPOSITE, ORIENTATION=ORI_884
1.29560435, 3, CFRP, 0.
** SOURCE_TET=6508
*ELSET, ELSET=ELEM_885
885
*ORIENTATION, NAME=ORI_885, SYSTEM=RECTANGULAR
18.63861022, -69.24644951, 179.21163459, 18.89242180, -68.22237953, 180.15336723
3, 0.
*SHELL SECTION, ELSET=ELEM_885, COMPOSITE, ORIENTATION=ORI_885
1.28681791, 3, CFRP, 0.
** SOURCE_TET=4962
*ELSET, ELSET=ELEM_886
886
*ORIENTATION, NAME=ORI_886, SYSTEM=RECTANGULAR
10.76657536, -70.62090554, 179.55137875, 11.14149507, -69.62083884, 180.47836407
3, 0.
*SHELL SECTION, ELSET=ELEM_886, COMPOSITE, ORIENTATION=ORI_886
1.28966987, 3, CFRP, 0.
** SOURCE_TET=5507
*ELSET, ELSET=ELEM_887
887
*ORIENTATION, NAME=ORI_887, SYSTEM=RECTANGULAR
-0.70362319, -67.02584698, 183.77068550, -0.22422297, -66.03303428, 184.65640462
3, 0.
*SHELL SECTION, ELSET=ELEM_887, COMPOSITE, ORIENTATION=ORI_887
1.29491901, 3, CFRP, 0.
** SOURCE_TET=3956
*ELSET, ELSET=ELEM_888
888
*ORIENTATION, NAME=ORI_888, SYSTEM=RECTANGULAR
-4.96737703, -61.92927042, 187.96297642, -4.42664876, -60.91850770, 188.79121048
3, 0.
*SHELL SECTION, ELSET=ELEM_888, COMPOSITE, ORIENTATION=ORI_888
1.30457079, 3, CFRP, 0.
** SOURCE_TET=4828
*ELSET, ELSET=ELEM_889
889
*ORIENTATION, NAME=ORI_889, SYSTEM=RECTANGULAR
-2.14537577, -56.35851093, 192.24854725, -1.65381368, -55.26753880, 193.00230219
3, 0.
*SHELL SECTION, ELSET=ELEM_889, COMPOSITE, ORIENTATION=ORI_889
1.31377137, 3, CFRP, 0.
** SOURCE_TET=4218
*ELSET, ELSET=ELEM_890
890
*ORIENTATION, NAME=ORI_890, SYSTEM=RECTANGULAR
46.00657303, -45.02576881, 186.17569320, 45.61425260, -43.96941357, 187.03020960
3, 0.
*SHELL SECTION, ELSET=ELEM_890, COMPOSITE, ORIENTATION=ORI_890
1.30163741, 3, CFRP, 0.
** SOURCE_TET=3919
*ELSET, ELSET=ELEM_891
891
*ORIENTATION, NAME=ORI_891, SYSTEM=RECTANGULAR
47.54240677, -37.90048884, 189.01968369, 46.98565535, -36.88221150, 189.82785390
3, 0.
*SHELL SECTION, ELSET=ELEM_891, COMPOSITE, ORIENTATION=ORI_891
1.30621958, 3, CFRP, 0.
** SOURCE_TET=4018
*ELSET, ELSET=ELEM_892
892
*ORIENTATION, NAME=ORI_892, SYSTEM=RECTANGULAR
42.36362369, -35.36279356, 193.09227506, 41.77000422, -34.31475410, 193.83337505
3, 0.
*SHELL SECTION, ELSET=ELEM_892, COMPOSITE, ORIENTATION=ORI_892
1.31989861, 3, CFRP, 0.
** SOURCE_TET=5709
*ELSET, ELSET=ELEM_893
893
*ORIENTATION, NAME=ORI_893, SYSTEM=RECTANGULAR
50.38946440, -48.73839141, 180.82623121, 50.04553406, -47.73137781, 181.75770077
3, 0.
*SHELL SECTION, ELSET=ELEM_893, COMPOSITE, ORIENTATION=ORI_893
1.29017437, 3, CFRP, 0.
** SOURCE_TET=5196
*ELSET, ELSET=ELEM_894
894
*ORIENTATION, NAME=ORI_894, SYSTEM=RECTANGULAR
46.94608833, -56.01907221, 177.68957760, 46.77046148, -54.99945786, 178.65370508
3, 0.
*SHELL SECTION, ELSET=ELEM_894, COMPOSITE, ORIENTATION=ORI_894
1.28427458, 3, CFRP, 0.
** SOURCE_TET=6054
*ELSET, ELSET=ELEM_895
895
*ORIENTATION, NAME=ORI_895, SYSTEM=RECTANGULAR
40.17451856, -57.92112837, 180.53497505, 40.04441915, -56.86717087, 181.46891708
3, 0.
*SHELL SECTION, ELSET=ELEM_895, COMPOSITE, ORIENTATION=ORI_895
1.29039741, 3, CFRP, 0.
** SOURCE_TET=4895
*ELSET, ELSET=ELEM_896
896
*ORIENTATION, NAME=ORI_896, SYSTEM=RECTANGULAR
29.14435701, -74.34750011, 169.23603263, 29.37834344, -73.41144368, 170.26998075
3, 0.
*SHELL SECTION, ELSET=ELEM_896, COMPOSITE, ORIENTATION=ORI_896
1.27602422, 3, CFRP, 0.
** SOURCE_TET=6247
*ELSET, ELSET=ELEM_897
897
*ORIENTATION, NAME=ORI_897, SYSTEM=RECTANGULAR
20.97349670, -74.43602323, 172.75230666, 21.26493568, -73.48798187, 173.76041425
3, 0.
*SHELL SECTION, ELSET=ELEM_897, COMPOSITE, ORIENTATION=ORI_897
1.28104341, 3, CFRP, 0.
** SOURCE_TET=3989
*ELSET, ELSET=ELEM_898
898
*ORIENTATION, NAME=ORI_898, SYSTEM=RECTANGULAR
36.02810515, -68.64706471, 172.38932329, 36.12131249, -67.67447721, 173.41176446
3, 0.
*SHELL SECTION, ELSET=ELEM_898, COMPOSITE, ORIENTATION=ORI_898
1.28056026, 3, CFRP, 0.
** SOURCE_TET=6108
*ELSET, ELSET=ELEM_899
899
*ORIENTATION, NAME=ORI_899, SYSTEM=RECTANGULAR
34.58415740, -63.42560205, 178.66624217, 34.60780343, -62.39317151, 179.63243472
3, 0.
*SHELL SECTION, ELSET=ELEM_899, COMPOSITE, ORIENTATION=ORI_899
1.28597522, 3, CFRP, 0.
** SOURCE_TET=6461
*ELSET, ELSET=ELEM_900
900
*ORIENTATION, NAME=ORI_900, SYSTEM=RECTANGULAR
-4.17393619, -72.10678934, 178.76892612, -3.60039430, -71.22223332, 179.71158743
3, 0.
*SHELL SECTION, ELSET=ELEM_900, COMPOSITE, ORIENTATION=ORI_900
1.28763270, 3, CFRP, 0.
** SOURCE_TET=6291
*ELSET, ELSET=ELEM_901
901
*ORIENTATION, NAME=ORI_901, SYSTEM=RECTANGULAR
-0.23781976, -77.16619623, 173.02223457, 0.29849492, -76.33196184, 174.03041092
3, 0.
*SHELL SECTION, ELSET=ELEM_901, COMPOSITE, ORIENTATION=ORI_901
1.28048992, 3, CFRP, 0.
** SOURCE_TET=6357
*ELSET, ELSET=ELEM_902
902
*ORIENTATION, NAME=ORI_902, SYSTEM=RECTANGULAR
6.99217338, -76.60328068, 173.29770088, 7.46615330, -75.73604568, 174.30925735
3, 0.
*SHELL SECTION, ELSET=ELEM_902, COMPOSITE, ORIENTATION=ORI_902
1.28072989, 3, CFRP, 0.
** SOURCE_TET=5008
*ELSET, ELSET=ELEM_903
903
*ORIENTATION, NAME=ORI_903, SYSTEM=RECTANGULAR
-12.66242486, -61.87864135, 187.15628923, -11.97889412, -60.96517718, 187.99197394
3, 0.
*SHELL SECTION, ELSET=ELEM_903, COMPOSITE, ORIENTATION=ORI_903
1.30108941, 3, CFRP, 0.
** SOURCE_TET=5134
*ELSET, ELSET=ELEM_904
904
*ORIENTATION, NAME=ORI_904, SYSTEM=RECTANGULAR
-15.91617526, -66.92297704, 182.14439709, -15.20886445, -66.10214191, 183.05321011
3, 0.
*SHELL SECTION, ELSET=ELEM_904, COMPOSITE, ORIENTATION=ORI_904
1.29364753, 3, CFRP, 0.
** SOURCE_TET=6365
*ELSET, ELSET=ELEM_905
905
*ORIENTATION, NAME=ORI_905, SYSTEM=RECTANGULAR
-11.67967851, -72.04822471, 177.95108628, -11.03781199, -71.23145124, 178.91071562
3, 0.
*SHELL SECTION, ELSET=ELEM_905, COMPOSITE, ORIENTATION=ORI_905
1.28678703, 3, CFRP, 0.
** SOURCE_TET=4724
*ELSET, ELSET=ELEM_906
906
*ORIENTATION, NAME=ORI_906, SYSTEM=RECTANGULAR
-16.70217017, -56.35913598, 190.58671603, -15.97326168, -55.43404914, 191.36959965
3, 0.
*SHELL SECTION, ELSET=ELEM_906, COMPOSITE, ORIENTATION=ORI_906
1.31265879, 3, CFRP, 0.
** SOURCE_TET=4289
*ELSET, ELSET=ELEM_907
907
*ORIENTATION, NAME=ORI_907, SYSTEM=RECTANGULAR
-13.78243331, -51.29541303, 194.42681716, -13.07592107, -50.29815310, 195.13837397
3, 0.
*SHELL SECTION, ELSET=ELEM_907, COMPOSITE, ORIENTATION=ORI_907
1.32307959, 3, CFRP, 0.
** SOURCE_TET=3783
*ELSET, ELSET=ELEM_908
908
*ORIENTATION, NAME=ORI_908, SYSTEM=RECTANGULAR
-6.86500365, -51.23876353, 195.30869976, -6.32786042, -50.13183652, 196.00597284
3, 0.
*SHELL SECTION, ELSET=ELEM_908, COMPOSITE, ORIENTATION=ORI_908
1.32923925, 3, CFRP, 0.
** SOURCE_TET=6164
*ELSET, ELSET=ELEM_909
909
*ORIENTATION, NAME=ORI_909, SYSTEM=RECTANGULAR
-23.84245482, -55.63747788, 189.28741904, -22.99373575, -54.84068391, 190.09041052
3, 0.
*SHELL SECTION, ELSET=ELEM_909, COMPOSITE, ORIENTATION=ORI_909
1.30737746, 3, CFRP, 0.
** SOURCE_TET=5224
*ELSET, ELSET=ELEM_910
910
*ORIENTATION, NAME=ORI_910, SYSTEM=RECTANGULAR
-27.58228919, -60.84337613, 183.91792471, -26.72180898, -60.16005459, 184.80823110
3, 0.
*SHELL SECTION, ELSET=ELEM_910, COMPOSITE, ORIENTATION=ORI_910
1.29403520, 3, CFRP, 0.
** SOURCE_TET=4334
*ELSET, ELSET=ELEM_911
911
*ORIENTATION, NAME=ORI_911, SYSTEM=RECTANGULAR
-23.71364505, -66.61741337, 180.20771304, -22.92471896, -65.89657193, 181.13398688
3, 0.
*SHELL SECTION, ELSET=ELEM_911, COMPOSITE, ORIENTATION=ORI_911
1.28756773, 3, CFRP, 0.
** SOURCE_TET=5042
*ELSET, ELSET=ELEM_912
912
*ORIENTATION, NAME=ORI_912, SYSTEM=RECTANGULAR
-27.32921292, -49.88769295, 191.94172130, -26.41900646, -49.11956415, 192.70428431
3, 0.
*SHELL SECTION, ELSET=ELEM_912, COMPOSITE, ORIENTATION=ORI_912
1.31330311, 3, CFRP, 0.
** SOURCE_TET=3888
*ELSET, ELSET=ELEM_913
913
*ORIENTATION, NAME=ORI_913, SYSTEM=RECTANGULAR
-23.94581479, -46.06461632, 195.25170840, -23.05129054, -45.23093173, 195.96219864
3, 0.
*SHELL SECTION, ELSET=ELEM_913, COMPOSITE, ORIENTATION=ORI_913
1.32977462, 3, CFRP, 0.
** SOURCE_TET=4177
*ELSET, ELSET=ELEM_914
914
*ORIENTATION, NAME=ORI_914, SYSTEM=RECTANGULAR
-17.50496746, -46.75179162, 196.45021197, -16.73169172, -45.77853299, 197.12460967
3, 0.
*SHELL SECTION, ELSET=ELEM_914, COMPOSITE, ORIENTATION=ORI_914
1.33507144, 3, CFRP, 0.
** SOURCE_TET=2256
*ELSET, ELSET=ELEM_915
915
*ORIENTATION, NAME=ORI_915, SYSTEM=RECTANGULAR
-16.70000588, -11.73496984, 207.87327982, -15.41755963, -11.20587624, 208.14785511
3, 0.
*SHELL SECTION, ELSET=ELEM_915, COMPOSITE, ORIENTATION=ORI_915
1.54948330, 3, CFRP, 0.
** SOURCE_TET=1157
*ELSET, ELSET=ELEM_916
916
*ORIENTATION, NAME=ORI_916, SYSTEM=RECTANGULAR
-17.73977425, -9.60146986, 207.92500427, -16.40661494, -9.21329120, 208.19333907
3, 0.
*SHELL SECTION, ELSET=ELEM_916, COMPOSITE, ORIENTATION=ORI_916
1.57219315, 3, CFRP, 0.
** SOURCE_TET=1982
*ELSET, ELSET=ELEM_917
917
*ORIENTATION, NAME=ORI_917, SYSTEM=RECTANGULAR
-16.57949106, -8.18960634, 208.25543444, -15.23377895, -7.83539440, 208.50761058
3, 0.
*SHELL SECTION, ELSET=ELEM_917, COMPOSITE, ORIENTATION=ORI_917
1.58933568, 3, CFRP, 0.
** SOURCE_TET=3527
*ELSET, ELSET=ELEM_918
918
*ORIENTATION, NAME=ORI_918, SYSTEM=RECTANGULAR
-17.98064030, -13.37117306, 207.43579846, -16.71184028, -12.82216956, 207.73369389
3, 0.
*SHELL SECTION, ELSET=ELEM_918, COMPOSITE, ORIENTATION=ORI_918
1.52380157, 3, CFRP, 0.
** SOURCE_TET=2092
*ELSET, ELSET=ELEM_919
919
*ORIENTATION, NAME=ORI_919, SYSTEM=RECTANGULAR
-17.02663302, -15.51098577, 207.28909830, -15.80470589, -14.86816166, 207.59515590
3, 0.
*SHELL SECTION, ELSET=ELEM_919, COMPOSITE, ORIENTATION=ORI_919
1.51692903, 3, CFRP, 0.
** SOURCE_TET=117
*ELSET, ELSET=ELEM_920
920
*ORIENTATION, NAME=ORI_920, SYSTEM=RECTANGULAR
-14.82445687, -15.98906125, 207.57461351, -13.64420479, -15.26522126, 207.86281605
3, 0.
*SHELL SECTION, ELSET=ELEM_920, COMPOSITE, ORIENTATION=ORI_920
1.53257608, 3, CFRP, 0.
** SOURCE_TET=4433
*ELSET, ELSET=ELEM_921
921
*ORIENTATION, NAME=ORI_921, SYSTEM=RECTANGULAR
-34.11784305, -48.85195444, 189.98380853, -33.12278860, -48.22865943, 190.77207877
3, 0.
*SHELL SECTION, ELSET=ELEM_921, COMPOSITE, ORIENTATION=ORI_921
1.31070530, 3, CFRP, 0.
** SOURCE_TET=5537
*ELSET, ELSET=ELEM_922
922
*ORIENTATION, NAME=ORI_922, SYSTEM=RECTANGULAR
-37.74108598, -53.76038241, 185.01858684, -36.77080864, -53.21590901, 185.89157631
3, 0.
*SHELL SECTION, ELSET=ELEM_922, COMPOSITE, ORIENTATION=ORI_922
1.29768014, 3, CFRP, 0.
** SOURCE_TET=5951
*ELSET, ELSET=ELEM_923
923
*ORIENTATION, NAME=ORI_923, SYSTEM=RECTANGULAR
-34.69865617, -60.01117075, 181.62133914, -33.79059091, -59.41550816, 182.52721086
3, 0.
*SHELL SECTION, ELSET=ELEM_923, COMPOSITE, ORIENTATION=ORI_923
1.29105377, 3, CFRP, 0.
** SOURCE_TET=1490
*ELSET, ELSET=ELEM_924
924
*ORIENTATION, NAME=ORI_924, SYSTEM=RECTANGULAR
-19.99964655, -9.04044580, 207.54017730, -18.63631356, -8.80360632, 207.83211945
3, 0.
*SHELL SECTION, ELSET=ELEM_924, COMPOSITE, ORIENTATION=ORI_924
1.52949321, 3, CFRP, 0.
** SOURCE_TET=444
*ELSET, ELSET=ELEM_925
925
*ORIENTATION, NAME=ORI_925, SYSTEM=RECTANGULAR
-21.26838389, -10.66236232, 207.11036855, -19.91744560, -10.38637642, 207.42468928
3, 0.
*SHELL SECTION, ELSET=ELEM_925, COMPOSITE, ORIENTATION=ORI_925
1.50840652, 3, CFRP, 0.
** SOURCE_TET=2048
*ELSET, ELSET=ELEM_926
926
*ORIENTATION, NAME=ORI_926, SYSTEM=RECTANGULAR
-20.27115865, -12.86484625, 207.05292152, -18.97683210, -12.39587582, 207.37662744
3, 0.
*SHELL SECTION, ELSET=ELEM_926, COMPOSITE, ORIENTATION=ORI_926
1.50566757, 3, CFRP, 0.
** SOURCE_TET=2487
*ELSET, ELSET=ELEM_927
927
*ORIENTATION, NAME=ORI_927, SYSTEM=RECTANGULAR
-20.85112763, -6.78163488, 207.54548358, -19.47301319, -6.66043770, 207.83893177
3, 0.
*SHELL SECTION, ELSET=ELEM_927, COMPOSITE, ORIENTATION=ORI_927
1.52929139, 3, CFRP, 0.
** SOURCE_TET=1163
*ELSET, ELSET=ELEM_928
928
*ORIENTATION, NAME=ORI_928, SYSTEM=RECTANGULAR
-19.35372311, -4.97153217, 207.95946135, -17.96601183, -4.91042904, 208.22502454
3, 0.
*SHELL SECTION, ELSET=ELEM_928, COMPOSITE, ORIENTATION=ORI_928
1.55519521, 3, CFRP, 0.
** SOURCE_TET=2477
*ELSET, ELSET=ELEM_929
929
*ORIENTATION, NAME=ORI_929, SYSTEM=RECTANGULAR
-17.35033679, -5.81302824, 208.29226620, -15.96324591, -5.68297075, 208.53529693
3, 0.
*SHELL SECTION, ELSET=ELEM_929, COMPOSITE, ORIENTATION=ORI_929
1.58963013, 3, CFRP, 0.
** SOURCE_TET=1876
*ELSET, ELSET=ELEM_930
930
*ORIENTATION, NAME=ORI_930, SYSTEM=RECTANGULAR
-22.95571864, -6.24813823, 207.10791472, -21.57917922, -6.18439974, 207.42584024
3, 0.
*SHELL SECTION, ELSET=ELEM_930, COMPOSITE, ORIENTATION=ORI_930
1.50769293, 3, CFRP, 0.
** SOURCE_TET=525
*ELSET, ELSET=ELEM_931
931
*ORIENTATION, NAME=ORI_931, SYSTEM=RECTANGULAR
-24.37338209, -8.12958394, 206.61693439, -23.00740468, -8.01169645, 206.96364500
3, 0.
*SHELL SECTION, ELSET=ELEM_931, COMPOSITE, ORIENTATION=ORI_931
1.48821414, 3, CFRP, 0.
** SOURCE_TET=130
*ELSET, ELSET=ELEM_932
932
*ORIENTATION, NAME=ORI_932, SYSTEM=RECTANGULAR
-23.53669861, -10.28495162, 206.62366766, -22.18194480, -10.06973687, 206.96765127
3, 0.
*SHELL SECTION, ELSET=ELEM_932, COMPOSITE, ORIENTATION=ORI_932
1.48859370, 3, CFRP, 0.
** SOURCE_TET=1956
*ELSET, ELSET=ELEM_933
933
*ORIENTATION, NAME=ORI_933, SYSTEM=RECTANGULAR
-23.73187532, -3.95142257, 207.04190771, -22.35946795, -4.06510395, 207.36373768
3, 0.
*SHELL SECTION, ELSET=ELEM_933, COMPOSITE, ORIENTATION=ORI_933
1.50324607, 3, CFRP, 0.
** SOURCE_TET=2698
*ELSET, ELSET=ELEM_934
934
*ORIENTATION, NAME=ORI_934, SYSTEM=RECTANGULAR
-22.39234733, -2.20263210, 207.41602374, -21.02226112, -2.38407267, 207.71592892
3, 0.
*SHELL SECTION, ELSET=ELEM_934, COMPOSITE, ORIENTATION=ORI_934
1.52038717, 3, CFRP, 0.
** SOURCE_TET=1466
*ELSET, ELSET=ELEM_935
935
*ORIENTATION, NAME=ORI_935, SYSTEM=RECTANGULAR
-20.15638543, -2.64823830, 207.88874562, -18.77539982, -2.79179378, 208.15757751
3, 0.
*SHELL SECTION, ELSET=ELEM_935, COMPOSITE, ORIENTATION=ORI_935
1.54800761, 3, CFRP, 0.
** SOURCE_TET=364
*ELSET, ELSET=ELEM_936
936
*ORIENTATION, NAME=ORI_936, SYSTEM=RECTANGULAR
-18.58127525, -17.24835749, 206.70661895, -17.36898638, -16.60353765, 207.04509064
3, 0.
*SHELL SECTION, ELSET=ELEM_936, COMPOSITE, ORIENTATION=ORI_936
1.49227893, 3, CFRP, 0.
** SOURCE_TET=1006
*ELSET, ELSET=ELEM_937
937
*ORIENTATION, NAME=ORI_937, SYSTEM=RECTANGULAR
-21.59173911, -16.58510305, 206.17817737, -20.33742840, -16.04634090, 206.54755521
3, 0.
*SHELL SECTION, ELSET=ELEM_937, COMPOSITE, ORIENTATION=ORI_937
1.46030271, 3, CFRP, 0.
** SOURCE_TET=729
*ELSET, ELSET=ELEM_938
938
*ORIENTATION, NAME=ORI_938, SYSTEM=RECTANGULAR
-22.32372965, -14.34046472, 206.37052417, -21.03581990, -13.88090551, 206.73120934
3, 0.
*SHELL SECTION, ELSET=ELEM_938, COMPOSITE, ORIENTATION=ORI_938
1.46591306, 3, CFRP, 0.
** SOURCE_TET=3959
*ELSET, ELSET=ELEM_939
939
*ORIENTATION, NAME=ORI_939, SYSTEM=RECTANGULAR
-37.60415235, -43.02723293, 191.75182598, -36.55278381, -42.46813855, 192.51473990
3, 0.
*SHELL SECTION, ELSET=ELEM_939, COMPOSITE, ORIENTATION=ORI_939
1.31486917, 3, CFRP, 0.
** SOURCE_TET=3060
*ELSET, ELSET=ELEM_940
940
*ORIENTATION, NAME=ORI_940, SYSTEM=RECTANGULAR
-34.51928742, -38.06207272, 195.50812801, -33.43976267, -37.46702322, 196.20133968
3, 0.
*SHELL SECTION, ELSET=ELEM_940, COMPOSITE, ORIENTATION=ORI_940
1.33123004, 3, CFRP, 0.
** SOURCE_TET=4704
*ELSET, ELSET=ELEM_941
941
*ORIENTATION, NAME=ORI_941, SYSTEM=RECTANGULAR
-29.10163709, -38.15797143, 197.54496723, -28.05794739, -37.46832352, 198.20458648
3, 0.
*SHELL SECTION, ELSET=ELEM_941, COMPOSITE, ORIENTATION=ORI_941
1.33935273, 3, CFRP, 0.
** SOURCE_TET=4705
*ELSET, ELSET=ELEM_942
942
*ORIENTATION, NAME=ORI_942, SYSTEM=RECTANGULAR
-25.38923760, -41.60585400, 197.15569578, -24.44602017, -40.79025571, 197.82288413
3, 0.
*SHELL SECTION, ELSET=ELEM_942, COMPOSITE, ORIENTATION=ORI_942
1.33720219, 3, CFRP, 0.
** SOURCE_TET=6528
*ELSET, ELSET=ELEM_943
943
*ORIENTATION, NAME=ORI_943, SYSTEM=RECTANGULAR
-44.33172879, -41.84861142, 188.96785517, -43.24190396, -41.45407541, 189.77817805
3, 0.
*SHELL SECTION, ELSET=ELEM_943, COMPOSITE, ORIENTATION=ORI_943
1.30548096, 3, CFRP, 0.
** SOURCE_TET=6427
*ELSET, ELSET=ELEM_944
944
*ORIENTATION, NAME=ORI_944, SYSTEM=RECTANGULAR
-47.10048664, -46.11131047, 184.92168152, -46.04226544, -45.75063362, 185.78775317
3, 0.
*SHELL SECTION, ELSET=ELEM_944, COMPOSITE, ORIENTATION=ORI_944
1.29846621, 3, CFRP, 0.
** SOURCE_TET=4446
*ELSET, ELSET=ELEM_945
945
*ORIENTATION, NAME=ORI_945, SYSTEM=RECTANGULAR
-43.99617491, -52.19863032, 182.74192532, -43.00179422, -51.74981071, 183.64179643
3, 0.
*SHELL SECTION, ELSET=ELEM_945, COMPOSITE, ORIENTATION=ORI_945
1.29441738, 3, CFRP, 0.
** SOURCE_TET=4089
*ELSET, ELSET=ELEM_946
946
*ORIENTATION, NAME=ORI_946, SYSTEM=RECTANGULAR
-47.63264124, -35.69162210, 190.06289996, -46.48491861, -35.43047539, 190.84682288
3, 0.
*SHELL SECTION, ELSET=ELEM_946, COMPOSITE, ORIENTATION=ORI_946
1.30830848, 3, CFRP, 0.
** SOURCE_TET=4312
*ELSET, ELSET=ELEM_947
947
*ORIENTATION, NAME=ORI_947, SYSTEM=RECTANGULAR
-44.53954412, -31.51541566, 193.55108267, -43.37781909, -31.19646894, 194.29180390
3, 0.
*SHELL SECTION, ELSET=ELEM_947, COMPOSITE, ORIENTATION=ORI_947
1.32135749, 3, CFRP, 0.
** SOURCE_TET=4058
*ELSET, ELSET=ELEM_948
948
*ORIENTATION, NAME=ORI_948, SYSTEM=RECTANGULAR
-38.19411711, -32.69111761, 196.21020839, -37.02850159, -32.24847151, 196.87759500
3, 0.
*SHELL SECTION, ELSET=ELEM_948, COMPOSITE, ORIENTATION=ORI_948
1.33019555, 3, CFRP, 0.
** SOURCE_TET=996
*ELSET, ELSET=ELEM_949
949
*ORIENTATION, NAME=ORI_949, SYSTEM=RECTANGULAR
-25.73698364, -3.52420182, 206.54875287, -24.37366510, -3.67263920, 206.89419302
3, 0.
*SHELL SECTION, ELSET=ELEM_949, COMPOSITE, ORIENTATION=ORI_949
1.48407614, 3, CFRP, 0.
** SOURCE_TET=1092
*ELSET, ELSET=ELEM_950
950
*ORIENTATION, NAME=ORI_950, SYSTEM=RECTANGULAR
-26.89347343, -7.54204127, 205.98341718, -25.53215436, -7.48413823, 206.36217517
3, 0.
*SHELL SECTION, ELSET=ELEM_950, COMPOSITE, ORIENTATION=ORI_950
1.45178044, 3, CFRP, 0.
** SOURCE_TET=547
*ELSET, ELSET=ELEM_951
951
*ORIENTATION, NAME=ORI_951, SYSTEM=RECTANGULAR
-27.50583261, -5.20458230, 205.97032995, -26.14502330, -5.29102877, 206.34546331
3, 0.
*SHELL SECTION, ELSET=ELEM_951, COMPOSITE, ORIENTATION=ORI_951
1.45762181, 3, CFRP, 0.
** SOURCE_TET=7170
*ELSET, ELSET=ELEM_952
952
*ORIENTATION, NAME=ORI_952, SYSTEM=RECTANGULAR
-23.13146392, 0.08590178, 207.26709654, -21.79766525, -0.26891124, 207.57546132
3, 0.
*SHELL SECTION, ELSET=ELEM_952, COMPOSITE, ORIENTATION=ORI_952
1.51472807, 3, CFRP, 0.
** SOURCE_TET=541
*ELSET, ELSET=ELEM_953
953
*ORIENTATION, NAME=ORI_953, SYSTEM=RECTANGULAR
-25.25808119, 0.56561550, 206.73353131, -23.93700110, 0.18970571, 207.07033870
3, 0.
*SHELL SECTION, ELSET=ELEM_953, COMPOSITE, ORIENTATION=ORI_953
1.49205554, 3, CFRP, 0.
** SOURCE_TET=363
*ELSET, ELSET=ELEM_954
954
*ORIENTATION, NAME=ORI_954, SYSTEM=RECTANGULAR
-26.52668735, -1.29226350, 206.38809889, -25.18040314, -1.53590929, 206.74608708
3, 0.
*SHELL SECTION, ELSET=ELEM_954, COMPOSITE, ORIENTATION=ORI_954
1.47866976, 3, CFRP, 0.
** SOURCE_TET=6250
*ELSET, ELSET=ELEM_955
955
*ORIENTATION, NAME=ORI_955, SYSTEM=RECTANGULAR
-53.89214361, -33.98244299, 186.75061516, -52.76928880, -33.83333839, 187.59735296
3, 0.
*SHELL SECTION, ELSET=ELEM_955, COMPOSITE, ORIENTATION=ORI_955
1.30193019, 3, CFRP, 0.
** SOURCE_TET=5462
*ELSET, ELSET=ELEM_956
956
*ORIENTATION, NAME=ORI_956, SYSTEM=RECTANGULAR
-56.86910020, -39.48241413, 181.66866381, -55.80497120, -39.34739108, 182.59029186
3, 0.
*SHELL SECTION, ELSET=ELEM_956, COMPOSITE, ORIENTATION=ORI_956
1.29052353, 3, CFRP, 0.
** SOURCE_TET=5899
*ELSET, ELSET=ELEM_957
957
*ORIENTATION, NAME=ORI_957, SYSTEM=RECTANGULAR
-53.37969484, -45.45488067, 180.93721243, -52.32971105, -45.24529329, 181.86112107
3, 0.
*SHELL SECTION, ELSET=ELEM_957, COMPOSITE, ORIENTATION=ORI_957
1.28963339, 3, CFRP, 0.
** SOURCE_TET=1079
*ELSET, ELSET=ELEM_958
958
*ORIENTATION, NAME=ORI_958, SYSTEM=RECTANGULAR
-14.79457977, 12.70110246, 208.06109145, -13.96352938, 11.58542556, 208.31529672
3, 0.
*SHELL SECTION, ELSET=ELEM_958, COMPOSITE, ORIENTATION=ORI_958
1.57427478, 3, CFRP, 0.
** SOURCE_TET=305
*ELSET, ELSET=ELEM_959
959
*ORIENTATION, NAME=ORI_959, SYSTEM=RECTANGULAR
-12.81358310, 13.71341483, 208.19755932, -12.13447304, 12.49867068, 208.44896771
3, 0.
*SHELL SECTION, ELSET=ELEM_959, COMPOSITE, ORIENTATION=ORI_959
1.58314729, 3, CFRP, 0.
** SOURCE_TET=7307
*ELSET, ELSET=ELEM_960
960
*ORIENTATION, NAME=ORI_960, SYSTEM=RECTANGULAR
-56.62118107, -26.83982770, 187.55830202, -55.47689505, -26.84197242, 188.38932844
3, 0.
*SHELL SECTION, ELSET=ELEM_960, COMPOSITE, ORIENTATION=ORI_960
1.30314386, 3, CFRP, 0.
** SOURCE_TET=3889
*ELSET, ELSET=ELEM_961
961
*ORIENTATION, NAME=ORI_961, SYSTEM=RECTANGULAR
-52.89682418, -22.67732404, 191.48477731, -51.71193294, -22.67826207, 192.25680830
3, 0.
*SHELL SECTION, ELSET=ELEM_961, COMPOSITE, ORIENTATION=ORI_961
1.31100821, 3, CFRP, 0.
** SOURCE_TET=4401
*ELSET, ELSET=ELEM_962
962
*ORIENTATION, NAME=ORI_962, SYSTEM=RECTANGULAR
-47.12313503, -25.62521535, 194.16847235, -45.91081985, -25.47188782, 194.88035898
3, 0.
*SHELL SECTION, ELSET=ELEM_962, COMPOSITE, ORIENTATION=ORI_962
1.32346642, 3, CFRP, 0.
** SOURCE_TET=6628
*ELSET, ELSET=ELEM_963
963
*ORIENTATION, NAME=ORI_963, SYSTEM=RECTANGULAR
-39.60856881, -64.39043125, 174.85892239, -38.71373544, -63.94366163, 175.85875745
3, 0.
*SHELL SECTION, ELSET=ELEM_963, COMPOSITE, ORIENTATION=ORI_963
1.28134775, 3, CFRP, 0.
** SOURCE_TET=6068
*ELSET, ELSET=ELEM_964
964
*ORIENTATION, NAME=ORI_964, SYSTEM=RECTANGULAR
-46.31685461, -61.22061963, 173.56411414, -45.37355300, -60.87818259, 174.56056732
3, 0.
*SHELL SECTION, ELSET=ELEM_964, COMPOSITE, ORIENTATION=ORI_964
1.28185463, 3, CFRP, 0.
** SOURCE_TET=6994
*ELSET, ELSET=ELEM_965
965
*ORIENTATION, NAME=ORI_965, SYSTEM=RECTANGULAR
-47.67650468, -55.26763340, 178.03640159, -46.69263639, -54.91864461, 178.99045086
3, 0.
*SHELL SECTION, ELSET=ELEM_965, COMPOSITE, ORIENTATION=ORI_965
1.28576767, 3, CFRP, 0.
** SOURCE_TET=4314
*ELSET, ELSET=ELEM_966
966
*ORIENTATION, NAME=ORI_966, SYSTEM=RECTANGULAR
-62.90358051, -24.62520590, 183.25117934, -61.81379077, -24.70842211, 184.14863875
3, 0.
*SHELL SECTION, ELSET=ELEM_966, COMPOSITE, ORIENTATION=ORI_966
1.29344785, 3, CFRP, 0.
** SOURCE_TET=5612
*ELSET, ELSET=ELEM_967
967
*ORIENTATION, NAME=ORI_967, SYSTEM=RECTANGULAR
-66.42294026, -29.96663136, 178.02766621, -65.38319660, -30.05436624, 178.98225289
3, 0.
*SHELL SECTION, ELSET=ELEM_967, COMPOSITE, ORIENTATION=ORI_967
1.28732133, 3, CFRP, 0.
** SOURCE_TET=5205
*ELSET, ELSET=ELEM_968
968
*ORIENTATION, NAME=ORI_968, SYSTEM=RECTANGULAR
-63.09558875, -37.70910590, 177.26863330, -62.06268162, -37.67311099, 178.23393492
3, 0.
*SHELL SECTION, ELSET=ELEM_968, COMPOSITE, ORIENTATION=ORI_968
1.28582799, 3, CFRP, 0.
** SOURCE_TET=4812
*ELSET, ELSET=ELEM_969
969
*ORIENTATION, NAME=ORI_969, SYSTEM=RECTANGULAR
-65.39877291, -17.11698646, 183.21013087, -64.32334282, -17.34249044, 184.10041064
3, 0.
*SHELL SECTION, ELSET=ELEM_969, COMPOSITE, ORIENTATION=ORI_969
1.29230893, 3, CFRP, 0.
** SOURCE_TET=5114
*ELSET, ELSET=ELEM_970
970
*ORIENTATION, NAME=ORI_970, SYSTEM=RECTANGULAR
-61.42717910, -11.73191537, 187.66036032, -60.31670993, -12.01282175, 188.48978773
3, 0.
*SHELL SECTION, ELSET=ELEM_970, COMPOSITE, ORIENTATION=ORI_970
1.30206668, 3, CFRP, 0.
** SOURCE_TET=5417
*ELSET, ELSET=ELEM_971
971
*ORIENTATION, NAME=ORI_971, SYSTEM=RECTANGULAR
-55.86762776, -12.10746596, 191.76541751, -54.69366375, -12.31093849, 192.52726228
3, 0.
*SHELL SECTION, ELSET=ELEM_971, COMPOSITE, ORIENTATION=ORI_971
1.31554794, 3, CFRP, 0.
** SOURCE_TET=4021
*ELSET, ELSET=ELEM_972
972
*ORIENTATION, NAME=ORI_972, SYSTEM=RECTANGULAR
-52.94500648, -16.44643788, 192.96082787, -51.75141979, -16.56165276, 193.71054538
3, 0.
*SHELL SECTION, ELSET=ELEM_972, COMPOSITE, ORIENTATION=ORI_972
1.31884062, 3, CFRP, 0.
** SOURCE_TET=5830
*ELSET, ELSET=ELEM_973
973
*ORIENTATION, NAME=ORI_973, SYSTEM=RECTANGULAR
-13.85530876, -77.08394332, 171.61128974, -13.17695595, -76.39343105, 172.64232333
3, 0.
*SHELL SECTION, ELSET=ELEM_973, COMPOSITE, ORIENTATION=ORI_973
1.27810538, 3, CFRP, 0.
** SOURCE_TET=5752
*ELSET, ELSET=ELEM_974
974
*ORIENTATION, NAME=ORI_974, SYSTEM=RECTANGULAR
-21.32575915, -77.18885430, 169.17966769, -20.58121294, -76.58234128, 170.21783573
3, 0.
*SHELL SECTION, ELSET=ELEM_974, COMPOSITE, ORIENTATION=ORI_974
1.27818429, 3, CFRP, 0.
** SOURCE_TET=6774
*ELSET, ELSET=ELEM_975
975
*ORIENTATION, NAME=ORI_975, SYSTEM=RECTANGULAR
-26.94755048, -71.84148924, 173.57324957, -26.16162923, -71.23815892, 174.58236816
3, 0.
*SHELL SECTION, ELSET=ELEM_975, COMPOSITE, ORIENTATION=ORI_975
1.28142333, 3, CFRP, 0.
** SOURCE_TET=6019
*ELSET, ELSET=ELEM_976
976
*ORIENTATION, NAME=ORI_976, SYSTEM=RECTANGULAR
-71.52564543, -15.04279066, 177.76655969, -70.53561231, -15.34756681, 178.72934000
3, 0.
*SHELL SECTION, ELSET=ELEM_976, COMPOSITE, ORIENTATION=ORI_976
1.28618872, 3, CFRP, 0.
** SOURCE_TET=6475
*ELSET, ELSET=ELEM_977
977
*ORIENTATION, NAME=ORI_977, SYSTEM=RECTANGULAR
-75.55020525, -21.02005811, 171.30467337, -74.62723938, -21.35002840, 172.32411127
3, 0.
*SHELL SECTION, ELSET=ELEM_977, COMPOSITE, ORIENTATION=ORI_977
1.27803898, 3, CFRP, 0.
** SOURCE_TET=5892
*ELSET, ELSET=ELEM_978
978
*ORIENTATION, NAME=ORI_978, SYSTEM=RECTANGULAR
-72.93415230, -28.47277738, 171.54894583, -71.99229325, -28.67628832, 172.58407134
3, 0.
*SHELL SECTION, ELSET=ELEM_978, COMPOSITE, ORIENTATION=ORI_978
1.27911830, 3, CFRP, 0.
** SOURCE_TET=5659
*ELSET, ELSET=ELEM_979
979
*ORIENTATION, NAME=ORI_979, SYSTEM=RECTANGULAR
-63.37536722, -4.47058180, 186.86117711, -62.30896683, -4.85504612, 187.70674047
3, 0.
*SHELL SECTION, ELSET=ELEM_979, COMPOSITE, ORIENTATION=ORI_979
1.30065119, 3, CFRP, 0.
** SOURCE_TET=4224
*ELSET, ELSET=ELEM_980
980
*ORIENTATION, NAME=ORI_980, SYSTEM=RECTANGULAR
-69.05331133, -1.91932219, 181.85908747, -68.08787127, -2.41182559, 182.76758397
3, 0.
*SHELL SECTION, ELSET=ELEM_980, COMPOSITE, ORIENTATION=ORI_980
1.29210818, 3, CFRP, 0.
** SOURCE_TET=5949
*ELSET, ELSET=ELEM_981
981
*ORIENTATION, NAME=ORI_981, SYSTEM=RECTANGULAR
-73.22311613, -7.12488673, 177.21951877, -72.28310009, -7.56300063, 178.18098955
3, 0.
*SHELL SECTION, ELSET=ELEM_981, COMPOSITE, ORIENTATION=ORI_981
1.28453124, 3, CFRP, 0.
** SOURCE_TET=661
*ELSET, ELSET=ELEM_982
982
*ORIENTATION, NAME=ORI_982, SYSTEM=RECTANGULAR
-15.57839090, 4.21255194, 208.66985848, -14.30874300, 3.62876609, 208.88708719
3, 0.
*SHELL SECTION, ELSET=ELEM_982, COMPOSITE, ORIENTATION=ORI_982
1.59140110, 3, CFRP, 0.
** SOURCE_TET=2067
*ELSET, ELSET=ELEM_983
983
*ORIENTATION, NAME=ORI_983, SYSTEM=RECTANGULAR
-15.39687251, 1.73458189, 208.77288498, -14.06514143, 1.30530686, 208.97834855
3, 0.
*SHELL SECTION, ELSET=ELEM_983, COMPOSITE, ORIENTATION=ORI_983
1.59177971, 3, CFRP, 0.
** SOURCE_TET=4864
*ELSET, ELSET=ELEM_984
984
*ORIENTATION, NAME=ORI_984, SYSTEM=RECTANGULAR
-59.18060067, 0.64815479, 190.28484838, -58.10334408, 0.17525359, 191.06963031
3, 0.
*SHELL SECTION, ELSET=ELEM_984, COMPOSITE, ORIENTATION=ORI_984
1.31034541, 3, CFRP, 0.
** SOURCE_TET=4073
*ELSET, ELSET=ELEM_985
985
*ORIENTATION, NAME=ORI_985, SYSTEM=RECTANGULAR
-54.21835989, -1.29309864, 193.76608539, -53.08658755, -1.72171650, 194.49778075
3, 0.
*SHELL SECTION, ELSET=ELEM_985, COMPOSITE, ORIENTATION=ORI_985
1.31907237, 3, CFRP, 0.
** SOURCE_TET=6919
*ELSET, ELSET=ELEM_986
986
*ORIENTATION, NAME=ORI_986, SYSTEM=RECTANGULAR
-52.86031800, -6.78804705, 194.45859171, -51.67273790, -7.05108190, 195.18002511
3, 0.
*SHELL SECTION, ELSET=ELEM_986, COMPOSITE, ORIENTATION=ORI_986
1.32289970, 3, CFRP, 0.
** SOURCE_TET=5146
*ELSET, ELSET=ELEM_987
987
*ORIENTATION, NAME=ORI_987, SYSTEM=RECTANGULAR
-60.24392570, 7.77061409, 189.12319412, -59.23666516, 7.19949198, 189.93513361
3, 0.
*SHELL SECTION, ELSET=ELEM_987, COMPOSITE, ORIENTATION=ORI_987
1.30784011, 3, CFRP, 0.
** SOURCE_TET=4322
*ELSET, ELSET=ELEM_988
988
*ORIENTATION, NAME=ORI_988, SYSTEM=RECTANGULAR
-65.78442933, 10.66210874, 184.10418427, -64.88014216, 10.04234491, 184.99758088
3, 0.
*SHELL SECTION, ELSET=ELEM_988, COMPOSITE, ORIENTATION=ORI_988
1.29502797, 3, CFRP, 0.
** SOURCE_TET=4989
*ELSET, ELSET=ELEM_989
989
*ORIENTATION, NAME=ORI_989, SYSTEM=RECTANGULAR
-70.39547155, 6.05830999, 180.28593660, -69.49825837, 5.47905016, 181.21301080
3, 0.
*SHELL SECTION, ELSET=ELEM_989, COMPOSITE, ORIENTATION=ORI_989
1.29017353, 3, CFRP, 0.
** SOURCE_TET=933
*ELSET, ELSET=ELEM_990
990
*ORIENTATION, NAME=ORI_990, SYSTEM=RECTANGULAR
-17.35702694, 9.05597173, 208.03813994, -16.27484103, 8.18309996, 208.29692272
3, 0.
*SHELL SECTION, ELSET=ELEM_990, COMPOSITE, ORIENTATION=ORI_990
1.57915533, 3, CFRP, 0.
** SOURCE_TET=708
*ELSET, ELSET=ELEM_991
991
*ORIENTATION, NAME=ORI_991, SYSTEM=RECTANGULAR
-17.68177482, 4.51933618, 208.29286877, -16.45898767, 3.85539233, 208.54579200
3, 0.
*SHELL SECTION, ELSET=ELEM_991, COMPOSITE, ORIENTATION=ORI_991
1.58940816, 3, CFRP, 0.
** SOURCE_TET=805
*ELSET, ELSET=ELEM_992
992
*ORIENTATION, NAME=ORI_992, SYSTEM=RECTANGULAR
-18.47694298, 6.39330404, 208.03592315, -17.30023978, 5.65133217, 208.29057452
3, 0.
*SHELL SECTION, ELSET=ELEM_992, COMPOSITE, ORIENTATION=ORI_992
1.57938588, 3, CFRP, 0.
** SOURCE_TET=1148
*ELSET, ELSET=ELEM_993
993
*ORIENTATION, NAME=ORI_993, SYSTEM=RECTANGULAR
-17.39977907, 14.00173854, 207.43900452, -16.56958758, 12.89801593, 207.74327165
3, 0.
*SHELL SECTION, ELSET=ELEM_993, COMPOSITE, ORIENTATION=ORI_993
1.52025509, 3, CFRP, 0.
** SOURCE_TET=1230
*ELSET, ELSET=ELEM_994
994
*ORIENTATION, NAME=ORI_994, SYSTEM=RECTANGULAR
-19.37175689, 13.13241876, 207.20295611, -18.42086683, 12.13252303, 207.51282162
3, 0.
*SHELL SECTION, ELSET=ELEM_994, COMPOSITE, ORIENTATION=ORI_994
1.51199436, 3, CFRP, 0.
** SOURCE_TET=969
*ELSET, ELSET=ELEM_995
995
*ORIENTATION, NAME=ORI_995, SYSTEM=RECTANGULAR
-19.17862327, 10.87054716, 207.51630156, -18.16220777, 9.93235729, 207.81074901
3, 0.
*SHELL SECTION, ELSET=ELEM_995, COMPOSITE, ORIENTATION=ORI_995
1.52798831, 3, CFRP, 0.
** SOURCE_TET=3351
*ELSET, ELSET=ELEM_996
996
*ORIENTATION, NAME=ORI_996, SYSTEM=RECTANGULAR
-55.76582141, 12.65967011, 191.74457960, -54.78213265, 11.98619150, 192.50535749
3, 0.
*SHELL SECTION, ELSET=ELEM_996, COMPOSITE, ORIENTATION=ORI_996
1.31712472, 3, CFRP, 0.
** SOURCE_TET=4341
*ELSET, ELSET=ELEM_997
997
*ORIENTATION, NAME=ORI_997, SYSTEM=RECTANGULAR
-50.38633257, 10.58867067, 195.44763298, -49.33935228, 9.93379327, 196.13681211
3, 0.
*SHELL SECTION, ELSET=ELEM_997, COMPOSITE, ORIENTATION=ORI_997
1.32844257, 3, CFRP, 0.
** SOURCE_TET=3945
*ELSET, ELSET=ELEM_998
998
*ORIENTATION, NAME=ORI_998, SYSTEM=RECTANGULAR
-49.90187307, 3.73428416, 196.32742631, -48.74797169, 3.26045396, 196.99375696
3, 0.
*SHELL SECTION, ELSET=ELEM_998, COMPOSITE, ORIENTATION=ORI_998
1.33383846, 3, CFRP, 0.
** SOURCE_TET=4318
*ELSET, ELSET=ELEM_999
999
*ORIENTATION, NAME=ORI_999, SYSTEM=RECTANGULAR
-56.30541972, 19.51783705, 190.01350273, -55.42309662, 18.75211913, 190.81048581
3, 0.
*SHELL SECTION, ELSET=ELEM_999, COMPOSITE, ORIENTATION=ORI_999
1.30722642, 3, CFRP, 0.
** SOURCE_TET=4852
*ELSET, ELSET=ELEM_1000
1000
*ORIENTATION, NAME=ORI_1000, SYSTEM=RECTANGULAR
-61.16592300, 21.54973343, 185.82026539, -60.34919986, 20.78076871, 186.68146024
3, 0.
*SHELL SECTION, ELSET=ELEM_1000, COMPOSITE, ORIENTATION=ORI_1000
1.29960048, 3, CFRP, 0.
** SOURCE_TET=3605
*ELSET, ELSET=ELEM_1001
1001
*ORIENTATION, NAME=ORI_1001, SYSTEM=RECTANGULAR
-66.16495295, 17.58152768, 182.53439724, -65.34228605, 16.86000467, 183.43028992
3, 0.
*SHELL SECTION, ELSET=ELEM_1001, COMPOSITE, ORIENTATION=ORI_1001
1.29478383, 3, CFRP, 0.
** SOURCE_TET=5570
*ELSET, ELSET=ELEM_1002
1002
*ORIENTATION, NAME=ORI_1002, SYSTEM=RECTANGULAR
-51.53892309, 24.22269098, 191.92482928, -50.72527558, 23.34712391, 192.68071289
3, 0.
*SHELL SECTION, ELSET=ELEM_1002, COMPOSITE, ORIENTATION=ORI_1002
1.31421709, 3, CFRP, 0.
** SOURCE_TET=3175
*ELSET, ELSET=ELEM_1003
1003
*ORIENTATION, NAME=ORI_1003, SYSTEM=RECTANGULAR
-46.30318127, 22.22279855, 195.53640093, -45.42122786, 21.36059608, 196.22832946
3, 0.
*SHELL SECTION, ELSET=ELEM_1003, COMPOSITE, ORIENTATION=ORI_1003
1.33132184, 3, CFRP, 0.
** SOURCE_TET=3694
*ELSET, ELSET=ELEM_1004
1004
*ORIENTATION, NAME=ORI_1004, SYSTEM=RECTANGULAR
-45.69631807, 15.48283481, 197.32576553, -44.70509821, 14.70543311, 197.96851727
3, 0.
*SHELL SECTION, ELSET=ELEM_1004, COMPOSITE, ORIENTATION=ORI_1004
1.33867061, 3, CFRP, 0.
** SOURCE_TET=5662
*ELSET, ELSET=ELEM_1005
1005
*ORIENTATION, NAME=ORI_1005, SYSTEM=RECTANGULAR
-51.64636588, 30.81285422, 189.60851202, -50.94136897, 29.88863128, 190.41398785
3, 0.
*SHELL SECTION, ELSET=ELEM_1005, COMPOSITE, ORIENTATION=ORI_1005
1.30891490, 3, CFRP, 0.
** SOURCE_TET=4143
*ELSET, ELSET=ELEM_1006
1006
*ORIENTATION, NAME=ORI_1006, SYSTEM=RECTANGULAR
-57.35093785, 32.62980863, 184.71431169, -56.71260216, 31.73170835, 185.60084620
3, 0.
*SHELL SECTION, ELSET=ELEM_1006, COMPOSITE, ORIENTATION=ORI_1006
1.29541397, 3, CFRP, 0.
** SOURCE_TET=5767
*ELSET, ELSET=ELEM_1007
1007
*ORIENTATION, NAME=ORI_1007, SYSTEM=RECTANGULAR
-62.10855082, 28.07463014, 182.84552525, -61.42415440, 27.22170106, 183.74224903
3, 0.
*SHELL SECTION, ELSET=ELEM_1007, COMPOSITE, ORIENTATION=ORI_1007
1.29278505, 3, CFRP, 0.
** SOURCE_TET=4855
*ELSET, ELSET=ELEM_1008
1008
*ORIENTATION, NAME=ORI_1008, SYSTEM=RECTANGULAR
-46.34415757, 35.30782849, 190.98534871, -45.75169542, 34.28277536, 191.75881795
3, 0.
*SHELL SECTION, ELSET=ELEM_1008, COMPOSITE, ORIENTATION=ORI_1008
1.31289315, 3, CFRP, 0.
** SOURCE_TET=4753
*ELSET, ELSET=ELEM_1009
1009
*ORIENTATION, NAME=ORI_1009, SYSTEM=RECTANGULAR
-41.38227081, 33.18076830, 194.51725263, -40.76281815, 32.12783690, 195.22972290
3, 0.
*SHELL SECTION, ELSET=ELEM_1009, COMPOSITE, ORIENTATION=ORI_1009
1.32243145, 3, CFRP, 0.
** SOURCE_TET=4752
*ELSET, ELSET=ELEM_1010
1010
*ORIENTATION, NAME=ORI_1010, SYSTEM=RECTANGULAR
-41.45332856, 26.72047405, 196.75296155, -40.67477257, 25.74180647, 197.41331020
3, 0.
*SHELL SECTION, ELSET=ELEM_1010, COMPOSITE, ORIENTATION=ORI_1010
1.33592987, 3, CFRP, 0.
** SOURCE_TET=4892
*ELSET, ELSET=ELEM_1011
1011
*ORIENTATION, NAME=ORI_1011, SYSTEM=RECTANGULAR
-46.01795553, 41.76105543, 188.02964553, -45.57511784, 40.69674567, 188.84887658
3, 0.
*SHELL SECTION, ELSET=ELEM_1011, COMPOSITE, ORIENTATION=ORI_1011
1.30297518, 3, CFRP, 0.
** SOURCE_TET=5297
*ELSET, ELSET=ELEM_1012
1012
*ORIENTATION, NAME=ORI_1012, SYSTEM=RECTANGULAR
-51.65642195, 43.81587198, 183.14774810, -51.21334145, 42.82202795, 184.05104967
3, 0.
*SHELL SECTION, ELSET=ELEM_1012, COMPOSITE, ORIENTATION=ORI_1012
1.29471076, 3, CFRP, 0.
** SOURCE_TET=4376
*ELSET, ELSET=ELEM_1013
1013
*ORIENTATION, NAME=ORI_1013, SYSTEM=RECTANGULAR
-57.68276742, 39.20638002, 181.21199193, -57.17328183, 38.25230649, 182.12312757
3, 0.
*SHELL SECTION, ELSET=ELEM_1013, COMPOSITE, ORIENTATION=ORI_1013
1.29221392, 3, CFRP, 0.
** SOURCE_TET=5453
*ELSET, ELSET=ELEM_1014
1014
*ORIENTATION, NAME=ORI_1014, SYSTEM=RECTANGULAR
-40.20246884, 46.05738708, 188.80903993, -39.84851867, 44.95520075, 189.62138503
3, 0.
*SHELL SECTION, ELSET=ELEM_1014, COMPOSITE, ORIENTATION=ORI_1014
1.30434442, 3, CFRP, 0.
** SOURCE_TET=3781
*ELSET, ELSET=ELEM_1015
1015
*ORIENTATION, NAME=ORI_1015, SYSTEM=RECTANGULAR
-34.66995672, 43.76715271, 192.65387325, -34.32592725, 42.61484438, 193.39807030
3, 0.
*SHELL SECTION, ELSET=ELEM_1015, COMPOSITE, ORIENTATION=ORI_1015
1.31764376, 3, CFRP, 0.
** SOURCE_TET=3151
*ELSET, ELSET=ELEM_1016
1016
*ORIENTATION, NAME=ORI_1016, SYSTEM=RECTANGULAR
-35.54444192, 37.31901708, 195.42747851, -35.03702152, 36.19317358, 196.11668163
3, 0.
*SHELL SECTION, ELSET=ELEM_1016, COMPOSITE, ORIENTATION=ORI_1016
1.33185387, 3, CFRP, 0.
** SOURCE_TET=6150
*ELSET, ELSET=ELEM_1017
1017
*ORIENTATION, NAME=ORI_1017, SYSTEM=RECTANGULAR
-39.47899880, 52.30194417, 185.19259482, -39.23233176, 51.21599696, 186.06430235
3, 0.
*SHELL SECTION, ELSET=ELEM_1017, COMPOSITE, ORIENTATION=ORI_1017
1.29822338, 3, CFRP, 0.
** SOURCE_TET=3910
*ELSET, ELSET=ELEM_1018
1018
*ORIENTATION, NAME=ORI_1018, SYSTEM=RECTANGULAR
-51.22425697, 50.77670372, 178.75474492, -50.93096986, 49.77184327, 179.70565930
3, 0.
*SHELL SECTION, ELSET=ELEM_1018, COMPOSITE, ORIENTATION=ORI_1018
1.28719974, 3, CFRP, 0.
** SOURCE_TET=5167
*ELSET, ELSET=ELEM_1019
1019
*ORIENTATION, NAME=ORI_1019, SYSTEM=RECTANGULAR
-44.85344985, 54.95505168, 180.01223955, -44.66846538, 53.90619651, 180.94266074
3, 0.
*SHELL SECTION, ELSET=ELEM_1019, COMPOSITE, ORIENTATION=ORI_1019
1.28746092, 3, CFRP, 0.
** SOURCE_TET=3810
*ELSET, ELSET=ELEM_1020
1020
*ORIENTATION, NAME=ORI_1020, SYSTEM=RECTANGULAR
-28.70685252, 47.65661461, 192.80779250, -28.47663444, 46.47609936, 193.55168993
3, 0.
*SHELL SECTION, ELSET=ELEM_1020, COMPOSITE, ORIENTATION=ORI_1020
1.31804121, 3, CFRP, 0.
** SOURCE_TET=5649
*ELSET, ELSET=ELEM_1021
1021
*ORIENTATION, NAME=ORI_1021, SYSTEM=RECTANGULAR
-28.00158893, 53.72691569, 189.27065408, -27.90532974, 52.56943526, 190.07748319
3, 0.
*SHELL SECTION, ELSET=ELEM_1021, COMPOSITE, ORIENTATION=ORI_1021
1.30504298, 3, CFRP, 0.
** SOURCE_TET=6823
*ELSET, ELSET=ELEM_1022
1022
*ORIENTATION, NAME=ORI_1022, SYSTEM=RECTANGULAR
-33.24257528, 56.08469248, 185.50420071, -33.13876289, 54.96868864, 186.36661501
3, 0.
*SHELL SECTION, ELSET=ELEM_1022, COMPOSITE, ORIENTATION=ORI_1022
1.29853046, 3, CFRP, 0.
** SOURCE_TET=6736
*ELSET, ELSET=ELEM_1023
1023
*ORIENTATION, NAME=ORI_1023, SYSTEM=RECTANGULAR
-78.59158245, -4.25632925, 171.09175386, -77.75706738, -4.75229236, 172.12015320
3, 0.
*SHELL SECTION, ELSET=ELEM_1023, COMPOSITE, ORIENTATION=ORI_1023
1.27947068, 3, CFRP, 0.
** SOURCE_TET=6026
*ELSET, ELSET=ELEM_1024
1024
*ORIENTATION, NAME=ORI_1024, SYSTEM=RECTANGULAR
-79.74905990, 4.78211609, 169.45097567, -78.99938076, 4.17901291, 170.48743491
3, 0.
*SHELL SECTION, ELSET=ELEM_1024, COMPOSITE, ORIENTATION=ORI_1024
1.27785659, 3, CFRP, 0.
** SOURCE_TET=5425
*ELSET, ELSET=ELEM_1025
1025
*ORIENTATION, NAME=ORI_1025, SYSTEM=RECTANGULAR
-75.70019333, 9.89042518, 173.98470762, -74.93304801, 9.25772248, 174.99027977
3, 0.
*SHELL SECTION, ELSET=ELEM_1025, COMPOSITE, ORIENTATION=ORI_1025
1.28119409, 3, CFRP, 0.
** SOURCE_TET=3212
*ELSET, ELSET=ELEM_1026
1026
*ORIENTATION, NAME=ORI_1026, SYSTEM=RECTANGULAR
-23.44544626, 45.83892005, 195.48858274, -23.26545196, 44.61899000, 196.18095021
3, 0.
*SHELL SECTION, ELSET=ELEM_1026, COMPOSITE, ORIENTATION=ORI_1026
1.33162355, 3, CFRP, 0.
** SOURCE_TET=4203
*ELSET, ELSET=ELEM_1027
1027
*ORIENTATION, NAME=ORI_1027, SYSTEM=RECTANGULAR
-31.26852319, 34.75892373, 198.16791561, -30.75482043, 33.61050672, 198.81386285
3, 0.
*SHELL SECTION, ELSET=ELEM_1027, COMPOSITE, ORIENTATION=ORI_1027
1.34357631, 3, CFRP, 0.
** SOURCE_TET=4189
*ELSET, ELSET=ELEM_1028
1028
*ORIENTATION, NAME=ORI_1028, SYSTEM=RECTANGULAR
-26.11065406, 36.92289001, 199.02205882, -25.75249319, 35.69770778, 199.63086856
3, 0.
*SHELL SECTION, ELSET=ELEM_1028, COMPOSITE, ORIENTATION=ORI_1028
1.34735537, 3, CFRP, 0.
** SOURCE_TET=5170
*ELSET, ELSET=ELEM_1029
1029
*ORIENTATION, NAME=ORI_1029, SYSTEM=RECTANGULAR
-22.92301669, 41.17859042, 198.00819654, -22.68187685, 39.94376314, 198.65399307
3, 0.
*SHELL SECTION, ELSET=ELEM_1029, COMPOSITE, ORIENTATION=ORI_1029
1.34216452, 3, CFRP, 0.
** SOURCE_TET=4118
*ELSET, ELSET=ELEM_1030
1030
*ORIENTATION, NAME=ORI_1030, SYSTEM=RECTANGULAR
-21.60111838, 56.89207670, 189.05348973, -21.64157443, 55.73563385, 189.86651079
3, 0.
*SHELL SECTION, ELSET=ELEM_1030, COMPOSITE, ORIENTATION=ORI_1030
1.30888164, 3, CFRP, 0.
** SOURCE_TET=4572
*ELSET, ELSET=ELEM_1031
1031
*ORIENTATION, NAME=ORI_1031, SYSTEM=RECTANGULAR
-16.15273806, 53.87547578, 192.38731622, -16.22691475, 52.68064979, 193.14023632
3, 0.
*SHELL SECTION, ELSET=ELEM_1031, COMPOSITE, ORIENTATION=ORI_1031
1.31679118, 3, CFRP, 0.
** SOURCE_TET=5198
*ELSET, ELSET=ELEM_1032
1032
*ORIENTATION, NAME=ORI_1032, SYSTEM=RECTANGULAR
-17.28429638, 48.89683549, 195.28207295, -17.28914658, 47.67548076, 195.99500289
3, 0.
*SHELL SECTION, ELSET=ELEM_1032, COMPOSITE, ORIENTATION=ORI_1032
1.32522607, 3, CFRP, 0.
** SOURCE_TET=5111
*ELSET, ELSET=ELEM_1033
1033
*ORIENTATION, NAME=ORI_1033, SYSTEM=RECTANGULAR
-20.45674529, 63.04002234, 184.45280394, -20.61025326, 61.94670919, 185.33660350
3, 0.
*SHELL SECTION, ELSET=ELEM_1033, COMPOSITE, ORIENTATION=ORI_1033
1.29615736, 3, CFRP, 0.
** SOURCE_TET=5178
*ELSET, ELSET=ELEM_1034
1034
*ORIENTATION, NAME=ORI_1034, SYSTEM=RECTANGULAR
-25.79529933, 65.76767839, 180.38924646, -25.92769148, 64.70159205, 181.30899220
3, 0.
*SHELL SECTION, ELSET=ELEM_1034, COMPOSITE, ORIENTATION=ORI_1034
1.29085660, 3, CFRP, 0.
** SOURCE_TET=5434
*ELSET, ELSET=ELEM_1035
1035
*ORIENTATION, NAME=ORI_1035, SYSTEM=RECTANGULAR
-32.17610287, 61.96894917, 181.21167344, -32.19408416, 60.89391640, 182.13035794
3, 0.
*SHELL SECTION, ELSET=ELEM_1035, COMPOSITE, ORIENTATION=ORI_1035
1.28925145, 3, CFRP, 0.
** SOURCE_TET=4844
*ELSET, ELSET=ELEM_1036
1036
*ORIENTATION, NAME=ORI_1036, SYSTEM=RECTANGULAR
-9.52459118, 56.41226863, 191.72112520, -9.78490151, 55.24776933, 192.48019036
3, 0.
*SHELL SECTION, ELSET=ELEM_1036, COMPOSITE, ORIENTATION=ORI_1036
1.31253052, 3, CFRP, 0.
** SOURCE_TET=6343
*ELSET, ELSET=ELEM_1037
1037
*ORIENTATION, NAME=ORI_1037, SYSTEM=RECTANGULAR
-8.16387760, 62.15959661, 187.59008257, -8.48365490, 61.06326106, 188.42422334
3, 0.
*SHELL SECTION, ELSET=ELEM_1037, COMPOSITE, ORIENTATION=ORI_1037
1.30388165, 3, CFRP, 0.
** SOURCE_TET=5650
*ELSET, ELSET=ELEM_1038
1038
*ORIENTATION, NAME=ORI_1038, SYSTEM=RECTANGULAR
-13.64538216, 65.77312889, 183.65606057, -13.89518797, 64.70514753, 184.54881635
3, 0.
*SHELL SECTION, ELSET=ELEM_1038, COMPOSITE, ORIENTATION=ORI_1038
1.29507375, 3, CFRP, 0.
** SOURCE_TET=3963
*ELSET, ELSET=ELEM_1039
1039
*ORIENTATION, NAME=ORI_1039, SYSTEM=RECTANGULAR
-4.26805800, 53.64109003, 194.03851817, -4.62302648, 52.47266193, 194.75180154
3, 0.
*SHELL SECTION, ELSET=ELEM_1039, COMPOSITE, ORIENTATION=ORI_1039
1.32297683, 3, CFRP, 0.
** SOURCE_TET=3775
*ELSET, ELSET=ELEM_1040
1040
*ORIENTATION, NAME=ORI_1040, SYSTEM=RECTANGULAR
-4.91048766, 49.18503123, 196.74608532, -5.17821478, 47.97663784, 197.43026923
3, 0.
*SHELL SECTION, ELSET=ELEM_1040, COMPOSITE, ORIENTATION=ORI_1040
1.33462071, 3, CFRP, 0.
** SOURCE_TET=4729
*ELSET, ELSET=ELEM_1041
1041
*ORIENTATION, NAME=ORI_1041, SYSTEM=RECTANGULAR
-13.71477550, 45.62223411, 197.77376437, -13.73884132, 44.36464878, 198.42021619
3, 0.
*SHELL SECTION, ELSET=ELEM_1041, COMPOSITE, ORIENTATION=ORI_1041
1.34212303, 3, CFRP, 0.
** SOURCE_TET=4408
*ELSET, ELSET=ELEM_1042
1042
*ORIENTATION, NAME=ORI_1042, SYSTEM=RECTANGULAR
-9.20315241, 45.89695829, 198.21791792, -9.36509442, 44.63927773, 198.84402845
3, 0.
*SHELL SECTION, ELSET=ELEM_1042, COMPOSITE, ORIENTATION=ORI_1042
1.34098864, 3, CFRP, 0.
** SOURCE_TET=5164
*ELSET, ELSET=ELEM_1043
1043
*ORIENTATION, NAME=ORI_1043, SYSTEM=RECTANGULAR
2.15916204, 55.92242345, 192.64490685, 1.69350285, 54.82172445, 193.40096454
3, 0.
*SHELL SECTION, ELSET=ELEM_1043, COMPOSITE, ORIENTATION=ORI_1043
1.31877255, 3, CFRP, 0.
** SOURCE_TET=5113
*ELSET, ELSET=ELEM_1044
1044
*ORIENTATION, NAME=ORI_1044, SYSTEM=RECTANGULAR
3.62507008, 60.42116125, 189.35656463, 3.09575716, 59.37932192, 190.15305609
3, 0.
*SHELL SECTION, ELSET=ELEM_1044, COMPOSITE, ORIENTATION=ORI_1044
1.30507970, 3, CFRP, 0.
** SOURCE_TET=7304
*ELSET, ELSET=ELEM_1045
1045
*ORIENTATION, NAME=ORI_1045, SYSTEM=RECTANGULAR
-1.48301285, 63.86870072, 186.62972495, -1.89782181, 62.82215268, 187.48568682
3, 0.
*SHELL SECTION, ELSET=ELEM_1045, COMPOSITE, ORIENTATION=ORI_1045
1.30222738, 3, CFRP, 0.
** SOURCE_TET=3190
*ELSET, ELSET=ELEM_1046
1046
*ORIENTATION, NAME=ORI_1046, SYSTEM=RECTANGULAR
7.09483292, 52.28619984, 194.71461824, 6.51019667, 51.20618839, 195.41588547
3, 0.
*SHELL SECTION, ELSET=ELEM_1046, COMPOSITE, ORIENTATION=ORI_1046
1.32723594, 3, CFRP, 0.
** SOURCE_TET=3336
*ELSET, ELSET=ELEM_1047
1047
*ORIENTATION, NAME=ORI_1047, SYSTEM=RECTANGULAR
4.96782293, 47.88197479, 197.45687437, 4.41831620, 46.75287839, 198.10740007
3, 0.
*SHELL SECTION, ELSET=ELEM_1047, COMPOSITE, ORIENTATION=ORI_1047
1.33783317, 3, CFRP, 0.
** SOURCE_TET=3680
*ELSET, ELSET=ELEM_1048
1048
*ORIENTATION, NAME=ORI_1048, SYSTEM=RECTANGULAR
-0.58327804, 47.08346406, 198.09750429, -0.96943415, 45.88085444, 198.73359671
3, 0.
*SHELL SECTION, ELSET=ELEM_1048, COMPOSITE, ORIENTATION=ORI_1048
1.34461355, 3, CFRP, 0.
** SOURCE_TET=4076
*ELSET, ELSET=ELEM_1049
1049
*ORIENTATION, NAME=ORI_1049, SYSTEM=RECTANGULAR
13.37967248, 53.27958024, 193.30880824, 12.70148947, 52.28035929, 194.04476021
3, 0.
*SHELL SECTION, ELSET=ELEM_1049, COMPOSITE, ORIENTATION=ORI_1049
1.31843758, 3, CFRP, 0.
** SOURCE_TET=4979
*ELSET, ELSET=ELEM_1050
1050
*ORIENTATION, NAME=ORI_1050, SYSTEM=RECTANGULAR
14.85001575, 58.92321995, 189.09473017, 14.13193346, 58.01371218, 189.90538018
3, 0.
*SHELL SECTION, ELSET=ELEM_1050, COMPOSITE, ORIENTATION=ORI_1050
1.30602920, 3, CFRP, 0.
** SOURCE_TET=5671
*ELSET, ELSET=ELEM_1051
1051
*ORIENTATION, NAME=ORI_1051, SYSTEM=RECTANGULAR
9.97487834, 62.41622555, 187.23144971, 9.36505934, 61.45729800, 188.07322090
3, 0.
*SHELL SECTION, ELSET=ELEM_1051, COMPOSITE, ORIENTATION=ORI_1051
1.30123782, 3, CFRP, 0.
** SOURCE_TET=5101
*ELSET, ELSET=ELEM_1052
1052
*ORIENTATION, NAME=ORI_1052, SYSTEM=RECTANGULAR
18.44746184, 49.11700320, 194.86980666, 17.64642676, 48.18322035, 195.56722504
3, 0.
*SHELL SECTION, ELSET=ELEM_1052, COMPOSITE, ORIENTATION=ORI_1052
1.32528305, 3, CFRP, 0.
** SOURCE_TET=3665
*ELSET, ELSET=ELEM_1053
1053
*ORIENTATION, NAME=ORI_1053, SYSTEM=RECTANGULAR
17.61849221, 44.05126648, 197.79717716, 16.80961993, 43.08757011, 198.44294410
3, 0.
*SHELL SECTION, ELSET=ELEM_1053, COMPOSITE, ORIENTATION=ORI_1053
1.34323907, 3, CFRP, 0.
** SOURCE_TET=4259
*ELSET, ELSET=ELEM_1054
1054
*ORIENTATION, NAME=ORI_1054, SYSTEM=RECTANGULAR
12.56220189, 42.33653168, 199.54054072, 11.82462617, 41.28916123, 200.13970447
3, 0.
*SHELL SECTION, ELSET=ELEM_1054, COMPOSITE, ORIENTATION=ORI_1054
1.35250390, 3, CFRP, 0.
** SOURCE_TET=3381
*ELSET, ELSET=ELEM_1055
1055
*ORIENTATION, NAME=ORI_1055, SYSTEM=RECTANGULAR
7.53269469, 43.94710380, 199.34020899, 6.94194472, 42.81521750, 199.94836019
3, 0.
*SHELL SECTION, ELSET=ELEM_1055, COMPOSITE, ORIENTATION=ORI_1055
1.35308814, 3, CFRP, 0.
** SOURCE_TET=5021
*ELSET, ELSET=ELEM_1056
1056
*ORIENTATION, NAME=ORI_1056, SYSTEM=RECTANGULAR
21.50352760, 60.19248924, 186.53365416, 20.72127137, 59.37476189, 187.38182701
3, 0.
*SHELL SECTION, ELSET=ELEM_1056, COMPOSITE, ORIENTATION=ORI_1056
1.30135083, 3, CFRP, 0.
** SOURCE_TET=3499
*ELSET, ELSET=ELEM_1057
1057
*ORIENTATION, NAME=ORI_1057, SYSTEM=RECTANGULAR
26.61395550, 55.66102331, 188.36807627, 25.76851828, 54.88421090, 189.19378710
3, 0.
*SHELL SECTION, ELSET=ELEM_1057, COMPOSITE, ORIENTATION=ORI_1057
1.30468953, 3, CFRP, 0.
** SOURCE_TET=4739
*ELSET, ELSET=ELEM_1058
1058
*ORIENTATION, NAME=ORI_1058, SYSTEM=RECTANGULAR
25.03609141, 50.22495936, 192.49294491, 24.13191134, 49.43492397, 193.24014132
3, 0.
*SHELL SECTION, ELSET=ELEM_1058, COMPOSITE, ORIENTATION=ORI_1058
1.31596065, 3, CFRP, 0.
** SOURCE_TET=6308
*ELSET, ELSET=ELEM_1059
1059
*ORIENTATION, NAME=ORI_1059, SYSTEM=RECTANGULAR
22.89884666, 65.89703557, 181.22614031, 22.12642729, 65.15752310, 182.15160756
3, 0.
*SHELL SECTION, ELSET=ELEM_1059, COMPOSITE, ORIENTATION=ORI_1059
1.29022253, 3, CFRP, 0.
** SOURCE_TET=5630
*ELSET, ELSET=ELEM_1060
1060
*ORIENTATION, NAME=ORI_1060, SYSTEM=RECTANGULAR
15.95062694, 70.25993055, 178.80905628, 15.24191581, 69.48923161, 179.75971484
3, 0.
*SHELL SECTION, ELSET=ELEM_1060, COMPOSITE, ORIENTATION=ORI_1060
1.28760624, 3, CFRP, 0.
** SOURCE_TET=4524
*ELSET, ELSET=ELEM_1061
1061
*ORIENTATION, NAME=ORI_1061, SYSTEM=RECTANGULAR
9.67914446, 68.04059050, 182.24082388, 9.07205708, 67.15771227, 183.16384661
3, 0.
*SHELL SECTION, ELSET=ELEM_1061, COMPOSITE, ORIENTATION=ORI_1061
1.29387367, 3, CFRP, 0.
** SOURCE_TET=2859
*ELSET, ELSET=ELEM_1062
1062
*ORIENTATION, NAME=ORI_1062, SYSTEM=RECTANGULAR
-4.34087710, 22.02197453, 207.42784327, -4.38522192, 20.64044849, 207.72687390
3, 0.
*SHELL SECTION, ELSET=ELEM_1062, COMPOSITE, ORIENTATION=ORI_1062
1.52448046, 3, CFRP, 0.
** SOURCE_TET=2563
*ELSET, ELSET=ELEM_1063
1063
*ORIENTATION, NAME=ORI_1063, SYSTEM=RECTANGULAR
-2.14111160, 23.00116485, 207.27410693, -2.35711081, 21.63798703, 207.58247454
3, 0.
*SHELL SECTION, ELSET=ELEM_1063, COMPOSITE, ORIENTATION=ORI_1063
1.51215148, 3, CFRP, 0.
** SOURCE_TET=2821
*ELSET, ELSET=ELEM_1064
1064
*ORIENTATION, NAME=ORI_1064, SYSTEM=RECTANGULAR
-0.23318370, 21.85340154, 207.56321310, -0.53228480, 20.50208489, 207.85387071
3, 0.
*SHELL SECTION, ELSET=ELEM_1064, COMPOSITE, ORIENTATION=ORI_1064
1.52637410, 3, CFRP, 0.
** SOURCE_TET=2536
*ELSET, ELSET=ELEM_1065
1065
*ORIENTATION, NAME=ORI_1065, SYSTEM=RECTANGULAR
-6.25595510, 23.19085507, 207.05114935, -6.23006158, 21.81385311, 207.37238935
3, 0.
*SHELL SECTION, ELSET=ELEM_1065, COMPOSITE, ORIENTATION=ORI_1065
1.50670838, 3, CFRP, 0.
** SOURCE_TET=2827
*ELSET, ELSET=ELEM_1066
1066
*ORIENTATION, NAME=ORI_1066, SYSTEM=RECTANGULAR
-8.43913513, 22.14770304, 207.12926708, -8.24000108, 20.78405143, 207.44675712
3, 0.
*SHELL SECTION, ELSET=ELEM_1066, COMPOSITE, ORIENTATION=ORI_1066
1.50945330, 3, CFRP, 0.
** SOURCE_TET=2511
*ELSET, ELSET=ELEM_1067
1067
*ORIENTATION, NAME=ORI_1067, SYSTEM=RECTANGULAR
-8.67986048, 19.92911938, 207.58733116, -8.42505374, 18.56870698, 207.87776469
3, 0.
*SHELL SECTION, ELSET=ELEM_1067, COMPOSITE, ORIENTATION=ORI_1067
1.53251946, 3, CFRP, 0.
** SOURCE_TET=5127
*ELSET, ELSET=ELEM_1068
1068
*ORIENTATION, NAME=ORI_1068, SYSTEM=RECTANGULAR
30.15238897, 66.45728738, 177.87165671, 29.30659014, 65.85192784, 178.82986554
3, 0.
*SHELL SECTION, ELSET=ELEM_1068, COMPOSITE, ORIENTATION=ORI_1068
1.28467202, 3, CFRP, 0.
** SOURCE_TET=4280
*ELSET, ELSET=ELEM_1069
1069
*ORIENTATION, NAME=ORI_1069, SYSTEM=RECTANGULAR
36.21603894, 60.68204997, 180.23434683, 35.31695227, 60.12183676, 181.17125895
3, 0.
*SHELL SECTION, ELSET=ELEM_1069, COMPOSITE, ORIENTATION=ORI_1069
1.29045391, 3, CFRP, 0.
** SOURCE_TET=4875
*ELSET, ELSET=ELEM_1070
1070
*ORIENTATION, NAME=ORI_1070, SYSTEM=RECTANGULAR
34.10104872, 55.58355278, 185.41074403, 33.18281207, 54.96525889, 186.29083159
3, 0.
*SHELL SECTION, ELSET=ELEM_1070, COMPOSITE, ORIENTATION=ORI_1070
1.29723370, 3, CFRP, 0.
** SOURCE_TET=3258
*ELSET, ELSET=ELEM_1071
1071
*ORIENTATION, NAME=ORI_1071, SYSTEM=RECTANGULAR
22.63382380, 40.15096942, 198.57930095, 21.67117642, 39.31521795, 199.19153414
3, 0.
*SHELL SECTION, ELSET=ELEM_1071, COMPOSITE, ORIENTATION=ORI_1071
1.34359348, 3, CFRP, 0.
** SOURCE_TET=5877
*ELSET, ELSET=ELEM_1072
1072
*ORIENTATION, NAME=ORI_1072, SYSTEM=RECTANGULAR
27.94021866, 40.83504988, 196.72598083, 26.93393825, 40.09553690, 197.38969785
3, 0.
*SHELL SECTION, ELSET=ELEM_1072, COMPOSITE, ORIENTATION=ORI_1072
1.33503628, 3, CFRP, 0.
** SOURCE_TET=5102
*ELSET, ELSET=ELEM_1073
1073
*ORIENTATION, NAME=ORI_1073, SYSTEM=RECTANGULAR
29.52413814, 45.85042150, 193.57665820, 28.55560555, 45.12641317, 194.30997707
3, 0.
*SHELL SECTION, ELSET=ELEM_1073, COMPOSITE, ORIENTATION=ORI_1073
1.31880629, 3, CFRP, 0.
** SOURCE_TET=3974
*ELSET, ELSET=ELEM_1074
1074
*ORIENTATION, NAME=ORI_1074, SYSTEM=RECTANGULAR
16.56250315, 75.83331936, 172.33447234, 15.88156001, 75.12909631, 173.35446565
3, 0.
*SHELL SECTION, ELSET=ELEM_1074, COMPOSITE, ORIENTATION=ORI_1074
1.28035760, 3, CFRP, 0.
** SOURCE_TET=5003
*ELSET, ELSET=ELEM_1075
1075
*ORIENTATION, NAME=ORI_1075, SYSTEM=RECTANGULAR
25.34073454, 77.07473595, 167.67322181, 24.57283865, 76.52846270, 168.72769866
3, 0.
*SHELL SECTION, ELSET=ELEM_1075, COMPOSITE, ORIENTATION=ORI_1075
1.27545583, 3, CFRP, 0.
** SOURCE_TET=3654
*ELSET, ELSET=ELEM_1076
1076
*ORIENTATION, NAME=ORI_1076, SYSTEM=RECTANGULAR
31.94354386, 72.05795112, 170.80193138, 31.12009326, 71.55036743, 171.83357469
3, 0.
*SHELL SECTION, ELSET=ELEM_1076, COMPOSITE, ORIENTATION=ORI_1076
1.27891552, 3, CFRP, 0.
** SOURCE_TET=1223
*ELSET, ELSET=ELEM_1077
1077
*ORIENTATION, NAME=ORI_1077, SYSTEM=RECTANGULAR
-1.94054645, 25.45557362, 206.65433664, -2.17780051, 24.10465999, 206.99892750
3, 0.
*SHELL SECTION, ELSET=ELEM_1077, COMPOSITE, ORIENTATION=ORI_1077
1.48697913, 3, CFRP, 0.
** SOURCE_TET=1298
*ELSET, ELSET=ELEM_1078
1078
*ORIENTATION, NAME=ORI_1078, SYSTEM=RECTANGULAR
-6.13579753, 25.82384263, 206.37643963, -6.16672942, 24.45650676, 206.73621158
3, 0.
*SHELL SECTION, ELSET=ELEM_1078, COMPOSITE, ORIENTATION=ORI_1078
1.46777225, 3, CFRP, 0.
** SOURCE_TET=857
*ELSET, ELSET=ELEM_1079
1079
*ORIENTATION, NAME=ORI_1079, SYSTEM=RECTANGULAR
-4.01865996, 27.11020213, 206.13540617, -4.14261388, 25.74936189, 206.49975390
3, 0.
*SHELL SECTION, ELSET=ELEM_1079, COMPOSITE, ORIENTATION=ORI_1079
1.46051049, 3, CFRP, 0.
** SOURCE_TET=948
*ELSET, ELSET=ELEM_1080
1080
*ORIENTATION, NAME=ORI_1080, SYSTEM=RECTANGULAR
0.19234939, 26.86605029, 206.29410426, -0.13549897, 25.53740885, 206.65079369
3, 0.
*SHELL SECTION, ELSET=ELEM_1080, COMPOSITE, ORIENTATION=ORI_1080
1.47458005, 3, CFRP, 0.
** SOURCE_TET=1063
*ELSET, ELSET=ELEM_1081
1081
*ORIENTATION, NAME=ORI_1081, SYSTEM=RECTANGULAR
2.17231864, 25.43496500, 206.64996536, 1.76676506, 24.12553044, 206.99768280
3, 0.
*SHELL SECTION, ELSET=ELEM_1081, COMPOSITE, ORIENTATION=ORI_1081
1.48694062, 3, CFRP, 0.
** SOURCE_TET=2552
*ELSET, ELSET=ELEM_1082
1082
*ORIENTATION, NAME=ORI_1082, SYSTEM=RECTANGULAR
1.98638170, 22.89755308, 207.30179320, 1.52978536, 21.59472989, 207.60866697
3, 0.
*SHELL SECTION, ELSET=ELEM_1082, COMPOSITE, ORIENTATION=ORI_1082
1.51881790, 3, CFRP, 0.
** SOURCE_TET=897
*ELSET, ELSET=ELEM_1083
1083
*ORIENTATION, NAME=ORI_1083, SYSTEM=RECTANGULAR
-10.42771339, 23.31194185, 206.65943477, -10.17491182, 21.96367644, 207.00334140
3, 0.
*SHELL SECTION, ELSET=ELEM_1083, COMPOSITE, ORIENTATION=ORI_1083
1.49042392, 3, CFRP, 0.
** SOURCE_TET=915
*ELSET, ELSET=ELEM_1084
1084
*ORIENTATION, NAME=ORI_1084, SYSTEM=RECTANGULAR
-11.17400817, 26.00789383, 205.86509414, -10.98228517, 24.66249299, 206.25642375
3, 0.
*SHELL SECTION, ELSET=ELEM_1084, COMPOSITE, ORIENTATION=ORI_1084
1.44876385, 3, CFRP, 0.
** SOURCE_TET=1330
*ELSET, ELSET=ELEM_1085
1085
*ORIENTATION, NAME=ORI_1085, SYSTEM=RECTANGULAR
-9.07412110, 27.46688228, 205.65677666, -8.97399518, 26.11121615, 206.04683323
3, 0.
*SHELL SECTION, ELSET=ELEM_1085, COMPOSITE, ORIENTATION=ORI_1085
1.44405735, 3, CFRP, 0.
** SOURCE_TET=161
*ELSET, ELSET=ELEM_1086
1086
*ORIENTATION, NAME=ORI_1086, SYSTEM=RECTANGULAR
-12.54945275, 22.25692930, 206.65957380, -12.19790062, 20.93009699, 207.00005451
3, 0.
*SHELL SECTION, ELSET=ELEM_1086, COMPOSITE, ORIENTATION=ORI_1086
1.49061430, 3, CFRP, 0.
** SOURCE_TET=773
*ELSET, ELSET=ELEM_1087
1087
*ORIENTATION, NAME=ORI_1087, SYSTEM=RECTANGULAR
-12.68218741, 19.99113856, 207.13558205, -12.27185134, 18.67469350, 207.44958320
3, 0.
*SHELL SECTION, ELSET=ELEM_1087, COMPOSITE, ORIENTATION=ORI_1087
1.51047575, 3, CFRP, 0.
** SOURCE_TET=1880
*ELSET, ELSET=ELEM_1088
1088
*ORIENTATION, NAME=ORI_1088, SYSTEM=RECTANGULAR
-10.80152019, 18.82687709, 207.59403594, -10.43291659, 17.49228773, 207.88213770
3, 0.
*SHELL SECTION, ELSET=ELEM_1088, COMPOSITE, ORIENTATION=ORI_1088
1.53338158, 3, CFRP, 0.
** SOURCE_TET=4656
*ELSET, ELSET=ELEM_1089
1089
*ORIENTATION, NAME=ORI_1089, SYSTEM=RECTANGULAR
9.03030913, 80.00577124, 168.50032579, 8.39834974, 79.29649482, 169.54796804
3, 0.
*SHELL SECTION, ELSET=ELEM_1089, COMPOSITE, ORIENTATION=ORI_1089
1.27758062, 3, CFRP, 0.
** SOURCE_TET=4767
*ELSET, ELSET=ELEM_1090
1090
*ORIENTATION, NAME=ORI_1090, SYSTEM=RECTANGULAR
-0.14061707, 78.42788305, 171.28667833, -0.69914215, 77.61489013, 172.30013393
3, 0.
*SHELL SECTION, ELSET=ELEM_1090, COMPOSITE, ORIENTATION=ORI_1090
1.27955842, 3, CFRP, 0.
** SOURCE_TET=4548
*ELSET, ELSET=ELEM_1091
1091
*ORIENTATION, NAME=ORI_1091, SYSTEM=RECTANGULAR
-2.79440873, 72.96356969, 177.68294192, -3.25926524, 72.04731400, 178.65473611
3, 0.
*SHELL SECTION, ELSET=ELEM_1091, COMPOSITE, ORIENTATION=ORI_1091
1.28660154, 3, CFRP, 0.
** SOURCE_TET=3916
*ELSET, ELSET=ELEM_1092
1092
*ORIENTATION, NAME=ORI_1092, SYSTEM=RECTANGULAR
2.10998279, 68.96187311, 181.88684142, 1.61457807, 68.02093343, 182.81915397
3, 0.
*SHELL SECTION, ELSET=ELEM_1092, COMPOSITE, ORIENTATION=ORI_1092
1.29124105, 3, CFRP, 0.
** SOURCE_TET=6730
*ELSET, ELSET=ELEM_1093
1093
*ORIENTATION, NAME=ORI_1093, SYSTEM=RECTANGULAR
10.12797934, 85.23624607, 160.41921052, 9.46174247, 84.65061159, 161.52064626
3, 0.
*SHELL SECTION, ELSET=ELEM_1093, COMPOSITE, ORIENTATION=ORI_1093
1.27058029, 3, CFRP, 0.
** SOURCE_TET=5699
*ELSET, ELSET=ELEM_1094
1094
*ORIENTATION, NAME=ORI_1094, SYSTEM=RECTANGULAR
19.36247052, 85.97855496, 156.14516765, 18.65442996, 85.52481800, 157.28218187
3, 0.
*SHELL SECTION, ELSET=ELEM_1094, COMPOSITE, ORIENTATION=ORI_1094
1.26879001, 3, CFRP, 0.
** SOURCE_TET=6102
*ELSET, ELSET=ELEM_1095
1095
*ORIENTATION, NAME=ORI_1095, SYSTEM=RECTANGULAR
27.03786489, 81.98439312, 159.56224833, 26.27649282, 81.54671766, 160.67073954
3, 0.
*SHELL SECTION, ELSET=ELEM_1095, COMPOSITE, ORIENTATION=ORI_1095
1.27114034, 3, CFRP, 0.
** SOURCE_TET=6470
*ELSET, ELSET=ELEM_1096
1096
*ORIENTATION, NAME=ORI_1096, SYSTEM=RECTANGULAR
-70.21279537, 21.60543552, 177.46371692, -69.50870380, 20.85709274, 178.43543609
3, 0.
*SHELL SECTION, ELSET=ELEM_1096, COMPOSITE, ORIENTATION=ORI_1096
1.28558958, 3, CFRP, 0.
** SOURCE_TET=5218
*ELSET, ELSET=ELEM_1097
1097
*ORIENTATION, NAME=ORI_1097, SYSTEM=RECTANGULAR
-67.60740851, 28.28067250, 177.67381885, -66.98695094, 27.45701298, 178.64160881
3, 0.
*SHELL SECTION, ELSET=ELEM_1097, COMPOSITE, ORIENTATION=ORI_1097
1.28691888, 3, CFRP, 0.
** SOURCE_TET=5707
*ELSET, ELSET=ELEM_1098
1098
*ORIENTATION, NAME=ORI_1098, SYSTEM=RECTANGULAR
-56.72290334, 52.70275337, 172.73802507, -56.48744099, 51.73839864, 173.74528742
3, 0.
*SHELL SECTION, ELSET=ELEM_1098, COMPOSITE, ORIENTATION=ORI_1098
1.27903640, 3, CFRP, 0.
** SOURCE_TET=5787
*ELSET, ELSET=ELEM_1099
1099
*ORIENTATION, NAME=ORI_1099, SYSTEM=RECTANGULAR
-63.15322132, 46.87335864, 171.15838271, -62.81858120, 45.95945916, 172.18444495
3, 0.
*SHELL SECTION, ELSET=ELEM_1099, COMPOSITE, ORIENTATION=ORI_1099
1.27941787, 3, CFRP, 0.
** SOURCE_TET=6271
*ELSET, ELSET=ELEM_1100
1100
*ORIENTATION, NAME=ORI_1100, SYSTEM=RECTANGULAR
-63.67103311, 40.33751744, 175.22845969, -63.23563598, 39.42938072, 176.22129252
3, 0.
*SHELL SECTION, ELSET=ELEM_1100, COMPOSITE, ORIENTATION=ORI_1100
1.28260922, 3, CFRP, 0.
** SOURCE_TET=5950
*ELSET, ELSET=ELEM_1101
1101
*ORIENTATION, NAME=ORI_1101, SYSTEM=RECTANGULAR
-55.27268957, 59.67791060, 167.48355751, -55.16483546, 58.75097878, 168.54617922
3, 0.
*SHELL SECTION, ELSET=ELEM_1101, COMPOSITE, ORIENTATION=ORI_1101
1.27556169, 3, CFRP, 0.
** SOURCE_TET=5604
*ELSET, ELSET=ELEM_1102
1102
*ORIENTATION, NAME=ORI_1102, SYSTEM=RECTANGULAR
-48.06427185, 64.90700005, 168.32287721, -48.05922554, 63.95269587, 169.36656206
3, 0.
*SHELL SECTION, ELSET=ELEM_1102, COMPOSITE, ORIENTATION=ORI_1102
1.27511168, 3, CFRP, 0.
** SOURCE_TET=4533
*ELSET, ELSET=ELEM_1103
1103
*ORIENTATION, NAME=ORI_1103, SYSTEM=RECTANGULAR
-43.16318931, 62.08070898, 174.84720025, -43.10295457, 61.07862417, 175.84329151
3, 0.
*SHELL SECTION, ELSET=ELEM_1103, COMPOSITE, ORIENTATION=ORI_1103
1.28258467, 3, CFRP, 0.
** SOURCE_TET=2904
*ELSET, ELSET=ELEM_1104
1104
*ORIENTATION, NAME=ORI_1104, SYSTEM=RECTANGULAR
-21.68984718, 1.89171230, 207.57949423, -20.37669548, 1.45332962, 207.86837693
3, 0.
*SHELL SECTION, ELSET=ELEM_1104, COMPOSITE, ORIENTATION=ORI_1104
1.53041637, 3, CFRP, 0.
** SOURCE_TET=1898
*ELSET, ELSET=ELEM_1105
1105
*ORIENTATION, NAME=ORI_1105, SYSTEM=RECTANGULAR
-19.77820815, 1.13767644, 207.99900664, -18.45013320, 0.73033992, 208.26413657
3, 0.
*SHELL SECTION, ELSET=ELEM_1105, COMPOSITE, ORIENTATION=ORI_1105
1.55681276, 3, CFRP, 0.
** SOURCE_TET=823
*ELSET, ELSET=ELEM_1106
1106
*ORIENTATION, NAME=ORI_1106, SYSTEM=RECTANGULAR
-18.95408467, -1.15813416, 208.15981777, -17.57966411, -1.37028335, 208.41664621
3, 0.
*SHELL SECTION, ELSET=ELEM_1106, COMPOSITE, ORIENTATION=ORI_1106
1.56728852, 3, CFRP, 0.
** SOURCE_TET=1215
*ELSET, ELSET=ELEM_1107
1107
*ORIENTATION, NAME=ORI_1107, SYSTEM=RECTANGULAR
-26.01839340, 2.80231656, 206.49278156, -24.72954606, 2.33765305, 206.84343858
3, 0.
*SHELL SECTION, ELSET=ELEM_1107, COMPOSITE, ORIENTATION=ORI_1107
1.48309934, 3, CFRP, 0.
** SOURCE_TET=1557
*ELSET, ELSET=ELEM_1108
1108
*ORIENTATION, NAME=ORI_1108, SYSTEM=RECTANGULAR
-24.56951361, 4.60630723, 206.80282848, -23.30687572, 4.06508531, 207.13872190
3, 0.
*SHELL SECTION, ELSET=ELEM_1108, COMPOSITE, ORIENTATION=ORI_1108
1.49441814, 3, CFRP, 0.
** SOURCE_TET=2431
*ELSET, ELSET=ELEM_1109
1109
*ORIENTATION, NAME=ORI_1109, SYSTEM=RECTANGULAR
-22.36689838, 4.17617708, 207.35475866, -21.09440193, 3.63982881, 207.65985424
3, 0.
*SHELL SECTION, ELSET=ELEM_1109, COMPOSITE, ORIENTATION=ORI_1109
1.51860118, 3, CFRP, 0.
** SOURCE_TET=2050
*ELSET, ELSET=ELEM_1110
1110
*ORIENTATION, NAME=ORI_1110, SYSTEM=RECTANGULAR
-28.42838106, 3.39524880, 205.78090285, -27.14998019, 2.93219653, 206.16984218
3, 0.
*SHELL SECTION, ELSET=ELEM_1110, COMPOSITE, ORIENTATION=ORI_1110
1.44916654, 3, CFRP, 0.
** SOURCE_TET=1764
*ELSET, ELSET=ELEM_1111
1111
*ORIENTATION, NAME=ORI_1111, SYSTEM=RECTANGULAR
-30.41022160, 1.22270265, 205.20317364, -29.11339164, 0.83478343, 205.61274748
3, 0.
*SHELL SECTION, ELSET=ELEM_1111, COMPOSITE, ORIENTATION=ORI_1111
1.43643844, 3, CFRP, 0.
** SOURCE_TET=1644
*ELSET, ELSET=ELEM_1112
1112
*ORIENTATION, NAME=ORI_1112, SYSTEM=RECTANGULAR
-29.26971241, -1.22776687, 205.56721333, -27.93900987, -1.48668793, 205.96994234
3, 0.
*SHELL SECTION, ELSET=ELEM_1112, COMPOSITE, ORIENTATION=ORI_1112
1.43494833, 3, CFRP, 0.
** SOURCE_TET=4159
*ELSET, ELSET=ELEM_1113
1113
*ORIENTATION, NAME=ORI_1113, SYSTEM=RECTANGULAR
-64.29901462, -49.34441763, 167.66026111, -63.35761206, -49.33097314, 168.71552433
3, 0.
*SHELL SECTION, ELSET=ELEM_1113, COMPOSITE, ORIENTATION=ORI_1113
1.27555633, 3, CFRP, 0.
** SOURCE_TET=6101
*ELSET, ELSET=ELEM_1114
1114
*ORIENTATION, NAME=ORI_1114, SYSTEM=RECTANGULAR
-57.54558607, -53.84113777, 170.95976190, -56.58434636, -53.72219539, 171.99023311
3, 0.
*SHELL SECTION, ELSET=ELEM_1114, COMPOSITE, ORIENTATION=ORI_1114
1.27765131, 3, CFRP, 0.
** SOURCE_TET=6188
*ELSET, ELSET=ELEM_1115
1115
*ORIENTATION, NAME=ORI_1115, SYSTEM=RECTANGULAR
-67.13457664, -41.51759901, 170.75817713, -66.16581087, -41.54457301, 171.78811174
3, 0.
*SHELL SECTION, ELSET=ELEM_1115, COMPOSITE, ORIENTATION=ORI_1115
1.27752578, 3, CFRP, 0.
** SOURCE_TET=5204
*ELSET, ELSET=ELEM_1116
1116
*ORIENTATION, NAME=ORI_1116, SYSTEM=RECTANGULAR
-53.77481743, -51.05490562, 176.72531620, -52.79154122, -50.81217277, 177.71235655
3, 0.
*SHELL SECTION, ELSET=ELEM_1116, COMPOSITE, ORIENTATION=ORI_1116
1.28457224, 3, CFRP, 0.
** SOURCE_TET=559
*ELSET, ELSET=ELEM_1117
1117
*ORIENTATION, NAME=ORI_1117, SYSTEM=RECTANGULAR
-14.58912319, 23.64600067, 206.03167461, -14.16198931, 22.35089976, 206.40620133
3, 0.
*SHELL SECTION, ELSET=ELEM_1117, COMPOSITE, ORIENTATION=ORI_1117
1.45347345, 3, CFRP, 0.
** SOURCE_TET=740
*ELSET, ELSET=ELEM_1118
1118
*ORIENTATION, NAME=ORI_1118, SYSTEM=RECTANGULAR
-14.01363034, 26.32566142, 205.41174015, -13.70168914, 25.00677466, 205.81575799
3, 0.
*SHELL SECTION, ELSET=ELEM_1118, COMPOSITE, ORIENTATION=ORI_1118
1.43599510, 3, CFRP, 0.
** SOURCE_TET=1077
*ELSET, ELSET=ELEM_1119
1119
*ORIENTATION, NAME=ORI_1119, SYSTEM=RECTANGULAR
-17.09268694, 22.67691045, 205.84336654, -16.57562331, 21.41565059, 206.22002128
3, 0.
*SHELL SECTION, ELSET=ELEM_1119, COMPOSITE, ORIENTATION=ORI_1119
1.44898057, 3, CFRP, 0.
** SOURCE_TET=970
*ELSET, ELSET=ELEM_1120
1120
*ORIENTATION, NAME=ORI_1120, SYSTEM=RECTANGULAR
-17.32979571, 20.35370857, 206.32674177, -16.70372919, 19.14072746, 206.69649514
3, 0.
*SHELL SECTION, ELSET=ELEM_1120, COMPOSITE, ORIENTATION=ORI_1120
1.46602488, 3, CFRP, 0.
** SOURCE_TET=168
*ELSET, ELSET=ELEM_1121
1121
*ORIENTATION, NAME=ORI_1121, SYSTEM=RECTANGULAR
-14.95122637, 19.08199209, 206.99439739, -14.38537632, 17.82599366, 207.31421243
3, 0.
*SHELL SECTION, ELSET=ELEM_1121, COMPOSITE, ORIENTATION=ORI_1121
1.49677277, 3, CFRP, 0.
** SOURCE_TET=1803
*ELSET, ELSET=ELEM_1122
1122
*ORIENTATION, NAME=ORI_1122, SYSTEM=RECTANGULAR
3.93218473, -31.31113942, 204.81154448, 4.09279032, -29.96822521, 205.22480864
3, 0.
*SHELL SECTION, ELSET=ELEM_1122, COMPOSITE, ORIENTATION=ORI_1122
1.42317629, 3, CFRP, 0.
** SOURCE_TET=1527
*ELSET, ELSET=ELEM_1123
1123
*ORIENTATION, NAME=ORI_1123, SYSTEM=RECTANGULAR
5.80678987, -26.50444893, 206.19857974, 5.82508897, -25.13792550, 206.56228132
3, 0.
*SHELL SECTION, ELSET=ELEM_1123, COMPOSITE, ORIENTATION=ORI_1123
1.46332896, 3, CFRP, 0.
** SOURCE_TET=1831
*ELSET, ELSET=ELEM_1124
1124
*ORIENTATION, NAME=ORI_1124, SYSTEM=RECTANGULAR
6.28244266, -30.06880351, 205.09611766, 6.35691714, -28.72131279, 205.51887328
3, 0.
*SHELL SECTION, ELSET=ELEM_1124, COMPOSITE, ORIENTATION=ORI_1124
1.42834425, 3, CFRP, 0.
** SOURCE_TET=1853
*ELSET, ELSET=ELEM_1125
1125
*ORIENTATION, NAME=ORI_1125, SYSTEM=RECTANGULAR
-0.92195278, -34.17180230, 203.91607893, -0.53609127, -32.89353932, 204.38207746
3, 0.
*SHELL SECTION, ELSET=ELEM_1125, COMPOSITE, ORIENTATION=ORI_1125
1.39951634, 3, CFRP, 0.
** SOURCE_TET=2620
*ELSET, ELSET=ELEM_1126
1126
*ORIENTATION, NAME=ORI_1126, SYSTEM=RECTANGULAR
2.69936464, -34.85402527, 203.61309352, 2.93200144, -33.54568600, 204.09696176
3, 0.
*SHELL SECTION, ELSET=ELEM_1126, COMPOSITE, ORIENTATION=ORI_1126
1.39696538, 3, CFRP, 0.
** SOURCE_TET=2165
*ELSET, ELSET=ELEM_1127
1127
*ORIENTATION, NAME=ORI_1127, SYSTEM=RECTANGULAR
-7.73456458, -33.68349861, 203.73269266, -7.11796334, -32.50208943, 204.20605854
3, 0.
*SHELL SECTION, ELSET=ELEM_1127, COMPOSITE, ORIENTATION=ORI_1127
1.40344417, 3, CFRP, 0.
** SOURCE_TET=1712
*ELSET, ELSET=ELEM_1128
1128
*ORIENTATION, NAME=ORI_1128, SYSTEM=RECTANGULAR
-4.15779859, -36.06357995, 203.08111181, -3.68218955, -34.82677260, 203.57518026
3, 0.
*SHELL SECTION, ELSET=ELEM_1128, COMPOSITE, ORIENTATION=ORI_1128
1.38979399, 3, CFRP, 0.
** SOURCE_TET=2508
*ELSET, ELSET=ELEM_1129
1129
*ORIENTATION, NAME=ORI_1129, SYSTEM=RECTANGULAR
-12.91514592, -27.55244363, 205.19995578, -12.06664912, -26.50067270, 205.61688633
3, 0.
*SHELL SECTION, ELSET=ELEM_1129, COMPOSITE, ORIENTATION=ORI_1129
1.42940807, 3, CFRP, 0.
** SOURCE_TET=3373
*ELSET, ELSET=ELEM_1130
1130
*ORIENTATION, NAME=ORI_1130, SYSTEM=RECTANGULAR
-11.65601660, -34.96950892, 202.84765839, -10.89824190, -33.88042697, 203.33722762
3, 0.
*SHELL SECTION, ELSET=ELEM_1130, COMPOSITE, ORIENTATION=ORI_1130
1.38719392, 3, CFRP, 0.
** SOURCE_TET=2971
*ELSET, ELSET=ELEM_1131
1131
*ORIENTATION, NAME=ORI_1131, SYSTEM=RECTANGULAR
-14.39891054, -31.13108600, 203.81902734, -13.55480344, -30.10160393, 204.29615403
3, 0.
*SHELL SECTION, ELSET=ELEM_1131, COMPOSITE, ORIENTATION=ORI_1131
1.39875257, 3, CFRP, 0.
** SOURCE_TET=3460
*ELSET, ELSET=ELEM_1132
1132
*ORIENTATION, NAME=ORI_1132, SYSTEM=RECTANGULAR
-3.94805326, -39.88266200, 201.52202749, -3.43257352, -38.67871636, 202.05568986
3, 0.
*SHELL SECTION, ELSET=ELEM_1132, COMPOSITE, ORIENTATION=ORI_1132
1.36980605, 3, CFRP, 0.
** SOURCE_TET=2758
*ELSET, ELSET=ELEM_1133
1133
*ORIENTATION, NAME=ORI_1133, SYSTEM=RECTANGULAR
3.44579156, -38.27367754, 202.19775236, 3.67814747, -36.97852584, 202.71601176
3, 0.
*SHELL SECTION, ELSET=ELEM_1133, COMPOSITE, ORIENTATION=ORI_1133
1.38168275, 3, CFRP, 0.
** SOURCE_TET=4246
*ELSET, ELSET=ELEM_1134
1134
*ORIENTATION, NAME=ORI_1134, SYSTEM=RECTANGULAR
0.08385998, -41.38619699, 200.94823755, 0.43497010, -40.13499082, 201.50609488
3, 0.
*SHELL SECTION, ELSET=ELEM_1134, COMPOSITE, ORIENTATION=ORI_1134
1.36367488, 3, CFRP, 0.
** SOURCE_TET=101
*ELSET, ELSET=ELEM_1135
1135
*ORIENTATION, NAME=ORI_1135, SYSTEM=RECTANGULAR
-17.76506893, -19.53855311, 206.42251054, -16.61690400, -18.79167696, 206.77449536
3, 0.
*SHELL SECTION, ELSET=ELEM_1135, COMPOSITE, ORIENTATION=ORI_1135
1.46645427, 3, CFRP, 0.
** SOURCE_TET=111
*ELSET, ELSET=ELEM_1136
1136
*ORIENTATION, NAME=ORI_1136, SYSTEM=RECTANGULAR
-15.34508730, -19.95207876, 206.75418979, -14.27258878, -19.09492328, 207.09335259
3, 0.
*SHELL SECTION, ELSET=ELEM_1136, COMPOSITE, ORIENTATION=ORI_1136
1.47614598, 3, CFRP, 0.
** SOURCE_TET=384
*ELSET, ELSET=ELEM_1137
1137
*ORIENTATION, NAME=ORI_1137, SYSTEM=RECTANGULAR
-13.90728815, -18.14779870, 207.33110608, -12.85734203, -17.25164492, 207.63854968
3, 0.
*SHELL SECTION, ELSET=ELEM_1137, COMPOSITE, ORIENTATION=ORI_1137
1.52624846, 3, CFRP, 0.
** SOURCE_TET=7183
*ELSET, ELSET=ELEM_1138
1138
*ORIENTATION, NAME=ORI_1138, SYSTEM=RECTANGULAR
-19.41890488, -21.59144110, 205.65595617, -18.27899525, -20.85165629, 206.04752287
3, 0.
*SHELL SECTION, ELSET=ELEM_1138, COMPOSITE, ORIENTATION=ORI_1138
1.44610405, 3, CFRP, 0.
** SOURCE_TET=7209
*ELSET, ELSET=ELEM_1139
1139
*ORIENTATION, NAME=ORI_1139, SYSTEM=RECTANGULAR
-21.97745125, -21.12927051, 205.20350514, -20.79930626, -20.46177681, 205.61145924
3, 0.
*SHELL SECTION, ELSET=ELEM_1139, COMPOSITE, ORIENTATION=ORI_1139
1.43594384, 3, CFRP, 0.
** SOURCE_TET=766
*ELSET, ELSET=ELEM_1140
1140
*ORIENTATION, NAME=ORI_1140, SYSTEM=RECTANGULAR
-23.35567097, -18.40738544, 205.43928038, -22.11010874, -17.86551103, 205.83291328
3, 0.
*SHELL SECTION, ELSET=ELEM_1140, COMPOSITE, ORIENTATION=ORI_1140
1.44165742, 3, CFRP, 0.
** SOURCE_TET=1625
*ELSET, ELSET=ELEM_1141
1141
*ORIENTATION, NAME=ORI_1141, SYSTEM=RECTANGULAR
-28.61737559, -9.63412205, 205.29160278, -27.26689346, -9.53096793, 205.69849004
3, 0.
*SHELL SECTION, ELSET=ELEM_1141, COMPOSITE, ORIENTATION=ORI_1141
1.43579328, 3, CFRP, 0.
** SOURCE_TET=1421
*ELSET, ELSET=ELEM_1142
1142
*ORIENTATION, NAME=ORI_1142, SYSTEM=RECTANGULAR
-27.07412490, -12.62230149, 205.38158636, -25.74639640, -12.35100045, 205.78597820
3, 0.
*SHELL SECTION, ELSET=ELEM_1142, COMPOSITE, ORIENTATION=ORI_1142
1.43120086, 3, CFRP, 0.
** SOURCE_TET=467
*ELSET, ELSET=ELEM_1143
1143
*ORIENTATION, NAME=ORI_1143, SYSTEM=RECTANGULAR
-24.51665218, -12.68129840, 206.07644635, -23.19111495, -12.36655925, 206.45577511
3, 0.
*SHELL SECTION, ELSET=ELEM_1143, COMPOSITE, ORIENTATION=ORI_1143
1.45854485, 3, CFRP, 0.
** SOURCE_TET=2338
*ELSET, ELSET=ELEM_1144
1144
*ORIENTATION, NAME=ORI_1144, SYSTEM=RECTANGULAR
-31.77430242, -8.85515517, 204.34017594, -30.43343640, -8.83741740, 204.78935707
3, 0.
*SHELL SECTION, ELSET=ELEM_1144, COMPOSITE, ORIENTATION=ORI_1144
1.40600729, 3, CFRP, 0.
** SOURCE_TET=2662
*ELSET, ELSET=ELEM_1145
1145
*ORIENTATION, NAME=ORI_1145, SYSTEM=RECTANGULAR
-32.61498260, -5.33356222, 204.31526617, -31.28170533, -5.48099091, 204.76319082
3, 0.
*SHELL SECTION, ELSET=ELEM_1145, COMPOSITE, ORIENTATION=ORI_1145
1.41253734, 3, CFRP, 0.
** SOURCE_TET=2334
*ELSET, ELSET=ELEM_1146
1146
*ORIENTATION, NAME=ORI_1146, SYSTEM=RECTANGULAR
-30.05577751, -3.79043098, 205.25485085, -28.71492250, -3.96772329, 205.66797949
3, 0.
*SHELL SECTION, ELSET=ELEM_1146, COMPOSITE, ORIENTATION=ORI_1146
1.42853868, 3, CFRP, 0.
** SOURCE_TET=3520
*ELSET, ELSET=ELEM_1147
1147
*ORIENTATION, NAME=ORI_1147, SYSTEM=RECTANGULAR
-33.76859934, -11.58491977, 203.33063007, -32.44045759, -11.51810688, 203.81185302
3, 0.
*SHELL SECTION, ELSET=ELEM_1147, COMPOSITE, ORIENTATION=ORI_1147
1.39295459, 3, CFRP, 0.
** SOURCE_TET=2151
*ELSET, ELSET=ELEM_1148
1148
*ORIENTATION, NAME=ORI_1148, SYSTEM=RECTANGULAR
-31.74063531, -15.47270336, 203.46546434, -30.43050958, -15.23191237, 203.94042776
3, 0.
*SHELL SECTION, ELSET=ELEM_1148, COMPOSITE, ORIENTATION=ORI_1148
1.39043736, 3, CFRP, 0.
** SOURCE_TET=2108
*ELSET, ELSET=ELEM_1149
1149
*ORIENTATION, NAME=ORI_1149, SYSTEM=RECTANGULAR
-28.21952161, -15.71902084, 204.56714863, -26.91783550, -15.38759497, 205.00960784
3, 0.
*SHELL SECTION, ELSET=ELEM_1149, COMPOSITE, ORIENTATION=ORI_1149
1.41656160, 3, CFRP, 0.
** SOURCE_TET=4768
*ELSET, ELSET=ELEM_1150
1150
*ORIENTATION, NAME=ORI_1150, SYSTEM=RECTANGULAR
-18.52282724, 74.82593091, 173.01513734, -18.84185428, 73.90185253, 174.03704776
3, 0.
*SHELL SECTION, ELSET=ELEM_1150, COMPOSITE, ORIENTATION=ORI_1150
1.28041518, 3, CFRP, 0.
** SOURCE_TET=6065
*ELSET, ELSET=ELEM_1151
1151
*ORIENTATION, NAME=ORI_1151, SYSTEM=RECTANGULAR
-25.63749855, 71.85546035, 174.12624558, -25.87371154, 70.88748513, 175.12985277
3, 0.
*SHELL SECTION, ELSET=ELEM_1151, COMPOSITE, ORIENTATION=ORI_1151
1.28125632, 3, CFRP, 0.
** SOURCE_TET=6837
*ELSET, ELSET=ELEM_1152
1152
*ORIENTATION, NAME=ORI_1152, SYSTEM=RECTANGULAR
-11.83632059, 71.49210709, 178.47155476, -12.20415333, 70.50910045, 179.41939285
3, 0.
*SHELL SECTION, ELSET=ELEM_1152, COMPOSITE, ORIENTATION=ORI_1152
1.28731215, 3, CFRP, 0.
** SOURCE_TET=6303
*ELSET, ELSET=ELEM_1153
1153
*ORIENTATION, NAME=ORI_1153, SYSTEM=RECTANGULAR
42.95317610, -11.52770472, 199.39276756, 41.88046468, -10.83340867, 199.99877350
3, 0.
*SHELL SECTION, ELSET=ELEM_1153, COMPOSITE, ORIENTATION=ORI_1153
1.35239661, 3, CFRP, 0.
** SOURCE_TET=3865
*ELSET, ELSET=ELEM_1154
1154
*ORIENTATION, NAME=ORI_1154, SYSTEM=RECTANGULAR
39.97819396, -7.35168268, 201.26078481, 38.81098174, -6.77347059, 201.81149926
3, 0.
*SHELL SECTION, ELSET=ELEM_1154, COMPOSITE, ORIENTATION=ORI_1154
1.37127674, 3, CFRP, 0.
** SOURCE_TET=2970
*ELSET, ELSET=ELEM_1155
1155
*ORIENTATION, NAME=ORI_1155, SYSTEM=RECTANGULAR
-38.00233383, -11.07117705, 201.71152143, -36.69483460, -11.06982293, 202.25044995
3, 0.
*SHELL SECTION, ELSET=ELEM_1155, COMPOSITE, ORIENTATION=ORI_1155
1.37659764, 3, CFRP, 0.
** SOURCE_TET=3598
*ELSET, ELSET=ELEM_1156
1156
*ORIENTATION, NAME=ORI_1156, SYSTEM=RECTANGULAR
-39.60645101, -6.67410353, 201.44617347, -38.31303190, -6.86130294, 201.98656536
3, 0.
*SHELL SECTION, ELSET=ELEM_1156, COMPOSITE, ORIENTATION=ORI_1156
1.37157822, 3, CFRP, 0.
** SOURCE_TET=4541
*ELSET, ELSET=ELEM_1157
1157
*ORIENTATION, NAME=ORI_1157, SYSTEM=RECTANGULAR
-36.19109505, -3.68946629, 203.04582199, -34.88752844, -3.93051129, 203.53837798
3, 0.
*SHELL SECTION, ELSET=ELEM_1157, COMPOSITE, ORIENTATION=ORI_1157
1.38635838, 3, CFRP, 0.
** SOURCE_TET=3149
*ELSET, ELSET=ELEM_1158
1158
*ORIENTATION, NAME=ORI_1158, SYSTEM=RECTANGULAR
21.46267671, 35.35314630, 200.88185901, 20.49177997, 34.48756499, 201.43695227
3, 0.
*SHELL SECTION, ELSET=ELEM_1158, COMPOSITE, ORIENTATION=ORI_1158
1.36595726, 3, CFRP, 0.
** SOURCE_TET=2981
*ELSET, ELSET=ELEM_1159
1159
*ORIENTATION, NAME=ORI_1159, SYSTEM=RECTANGULAR
16.60695730, 33.84875182, 202.46667394, 15.74286583, 32.85481579, 202.98187981
3, 0.
*SHELL SECTION, ELSET=ELEM_1159, COMPOSITE, ORIENTATION=ORI_1159
1.38344777, 3, CFRP, 0.
** SOURCE_TET=3236
*ELSET, ELSET=ELEM_1160
1160
*ORIENTATION, NAME=ORI_1160, SYSTEM=RECTANGULAR
12.70346975, 36.93327313, 201.91524105, 11.93736609, 35.86535788, 202.43739258
3, 0.
*SHELL SECTION, ELSET=ELEM_1160, COMPOSITE, ORIENTATION=ORI_1160
1.37799966, 3, CFRP, 0.
** SOURCE_TET=4087
*ELSET, ELSET=ELEM_1161
1161
*ORIENTATION, NAME=ORI_1161, SYSTEM=RECTANGULAR
31.52030206, 36.64397272, 197.38010082, 30.45390705, 35.98497907, 198.03472212
3, 0.
*SHELL SECTION, ELSET=ELEM_1161, COMPOSITE, ORIENTATION=ORI_1161
1.33783317, 3, CFRP, 0.
** SOURCE_TET=2654
*ELSET, ELSET=ELEM_1162
1162
*ORIENTATION, NAME=ORI_1162, SYSTEM=RECTANGULAR
25.18324334, 31.44692640, 201.37942521, 24.09425017, 30.72480298, 201.92037960
3, 0.
*SHELL SECTION, ELSET=ELEM_1162, COMPOSITE, ORIENTATION=ORI_1162
1.36782265, 3, CFRP, 0.
** SOURCE_TET=3240
*ELSET, ELSET=ELEM_1163
1163
*ORIENTATION, NAME=ORI_1163, SYSTEM=RECTANGULAR
29.91343326, 32.05382568, 199.73607029, 28.79341970, 31.41979626, 200.32222414
3, 0.
*SHELL SECTION, ELSET=ELEM_1163, COMPOSITE, ORIENTATION=ORI_1163
1.35605872, 3, CFRP, 0.
** SOURCE_TET=3395
*ELSET, ELSET=ELEM_1164
1164
*ORIENTATION, NAME=ORI_1164, SYSTEM=RECTANGULAR
36.51199477, 36.70240877, 195.38145201, 35.39533082, 36.17713788, 196.07221400
3, 0.
*SHELL SECTION, ELSET=ELEM_1164, COMPOSITE, ORIENTATION=ORI_1164
1.32459974, 3, CFRP, 0.
** SOURCE_TET=4825
*ELSET, ELSET=ELEM_1165
1165
*ORIENTATION, NAME=ORI_1165, SYSTEM=RECTANGULAR
34.66084677, 46.20902116, 191.43459362, 33.65999741, 45.56635609, 192.19963097
3, 0.
*SHELL SECTION, ELSET=ELEM_1165, COMPOSITE, ORIENTATION=ORI_1165
1.31317294, 3, CFRP, 0.
** SOURCE_TET=6277
*ELSET, ELSET=ELEM_1166
1166
*ORIENTATION, NAME=ORI_1166, SYSTEM=RECTANGULAR
38.06615060, 41.24959574, 192.57912428, 36.98398178, 40.73329497, 193.32902038
3, 0.
*SHELL SECTION, ELSET=ELEM_1166, COMPOSITE, ORIENTATION=ORI_1166
1.31633961, 3, CFRP, 0.
** SOURCE_TET=2623
*ELSET, ELSET=ELEM_1167
1167
*ORIENTATION, NAME=ORI_1167, SYSTEM=RECTANGULAR
23.51846652, 27.30475302, 203.17420626, 22.41440270, 26.56972920, 203.66490276
3, 0.
*SHELL SECTION, ELSET=ELEM_1167, COMPOSITE, ORIENTATION=ORI_1167
1.39162850, 3, CFRP, 0.
** SOURCE_TET=2607
*ELSET, ELSET=ELEM_1168
1168
*ORIENTATION, NAME=ORI_1168, SYSTEM=RECTANGULAR
15.90320987, 29.16299222, 204.21902393, 14.96587027, 28.20372630, 204.66758093
3, 0.
*SHELL SECTION, ELSET=ELEM_1168, COMPOSITE, ORIENTATION=ORI_1168
1.40829551, 3, CFRP, 0.
** SOURCE_TET=7263
*ELSET, ELSET=ELEM_1169
1169
*ORIENTATION, NAME=ORI_1169, SYSTEM=RECTANGULAR
19.08943921, 26.51704957, 204.42353722, 18.03989398, 25.67633098, 204.86131236
3, 0.
*SHELL SECTION, ELSET=ELEM_1169, COMPOSITE, ORIENTATION=ORI_1169
1.41517365, 3, CFRP, 0.
** SOURCE_TET=2314
*ELSET, ELSET=ELEM_1170
1170
*ORIENTATION, NAME=ORI_1170, SYSTEM=RECTANGULAR
25.46383578, 23.94428986, 203.59640561, 24.27437476, 23.34563814, 204.07263936
3, 0.
*SHELL SECTION, ELSET=ELEM_1170, COMPOSITE, ORIENTATION=ORI_1170
1.39655459, 3, CFRP, 0.
** SOURCE_TET=2822
*ELSET, ELSET=ELEM_1171
1171
*ORIENTATION, NAME=ORI_1171, SYSTEM=RECTANGULAR
32.54514406, 28.44243216, 200.07207833, 31.37827776, 27.89561351, 200.65466945
3, 0.
*SHELL SECTION, ELSET=ELEM_1171, COMPOSITE, ORIENTATION=ORI_1171
1.35809588, 3, CFRP, 0.
** SOURCE_TET=2428
*ELSET, ELSET=ELEM_1172
1172
*ORIENTATION, NAME=ORI_1172, SYSTEM=RECTANGULAR
28.65857108, 23.36693097, 202.83614124, 27.43971488, 22.84107082, 203.32385086
3, 0.
*SHELL SECTION, ELSET=ELEM_1172, COMPOSITE, ORIENTATION=ORI_1172
1.38734484, 3, CFRP, 0.
** SOURCE_TET=1258
*ELSET, ELSET=ELEM_1173
1173
*ORIENTATION, NAME=ORI_1173, SYSTEM=RECTANGULAR
31.49036753, 25.05742628, 201.48067296, 30.28014936, 24.56484477, 202.02172326
3, 0.
*SHELL SECTION, ELSET=ELEM_1173, COMPOSITE, ORIENTATION=ORI_1173
1.37420738, 3, CFRP, 0.
** SOURCE_TET=1452
*ELSET, ELSET=ELEM_1174
1174
*ORIENTATION, NAME=ORI_1174, SYSTEM=RECTANGULAR
16.39337213, 11.62482178, 207.93758009, 15.11884902, 11.07389857, 208.20604692
3, 0.
*SHELL SECTION, ELSET=ELEM_1174, COMPOSITE, ORIENTATION=ORI_1174
1.55802393, 3, CFRP, 0.
** SOURCE_TET=1936
*ELSET, ELSET=ELEM_1175
1175
*ORIENTATION, NAME=ORI_1175, SYSTEM=RECTANGULAR
17.36200176, 9.41065477, 208.00847326, 16.02022881, 9.04887668, 208.27069832
3, 0.
*SHELL SECTION, ELSET=ELEM_1175, COMPOSITE, ORIENTATION=ORI_1175
1.56473100, 3, CFRP, 0.
** SOURCE_TET=1735
*ELSET, ELSET=ELEM_1176
1176
*ORIENTATION, NAME=ORI_1176, SYSTEM=RECTANGULAR
16.17394677, 7.68102484, 208.36378923, 14.81903820, 7.35388021, 208.60295267
3, 0.
*SHELL SECTION, ELSET=ELEM_1176, COMPOSITE, ORIENTATION=ORI_1176
1.59004927, 3, CFRP, 0.
** SOURCE_TET=2099
*ELSET, ELSET=ELEM_1177
1177
*ORIENTATION, NAME=ORI_1177, SYSTEM=RECTANGULAR
17.78350188, 13.40472505, 207.46652838, 16.52445290, 12.83375543, 207.76450383
3, 0.
*SHELL SECTION, ELSET=ELEM_1177, COMPOSITE, ORIENTATION=ORI_1177
1.52887249, 3, CFRP, 0.
** SOURCE_TET=2197
*ELSET, ELSET=ELEM_1178
1178
*ORIENTATION, NAME=ORI_1178, SYSTEM=RECTANGULAR
16.86174124, 15.56966029, 207.30844370, 15.65150003, 14.90497216, 207.61423105
3, 0.
*SHELL SECTION, ELSET=ELEM_1178, COMPOSITE, ORIENTATION=ORI_1178
1.52086186, 3, CFRP, 0.
** SOURCE_TET=7185
*ELSET, ELSET=ELEM_1179
1179
*ORIENTATION, NAME=ORI_1179, SYSTEM=RECTANGULAR
14.49846747, 15.96644924, 207.62445029, 13.36630800, 15.16949669, 207.91268902
3, 0.
*SHELL SECTION, ELSET=ELEM_1179, COMPOSITE, ORIENTATION=ORI_1179
1.55041003, 3, CFRP, 0.
** SOURCE_TET=5066
*ELSET, ELSET=ELEM_1180
1180
*ORIENTATION, NAME=ORI_1180, SYSTEM=RECTANGULAR
-36.56001194, 25.82581767, 199.23173505, -35.77698060, 24.81511845, 199.83617613
3, 0.
*SHELL SECTION, ELSET=ELEM_1180, COMPOSITE, ORIENTATION=ORI_1180
1.34767652, 3, CFRP, 0.
** SOURCE_TET=3805
*ELSET, ELSET=ELEM_1181
1181
*ORIENTATION, NAME=ORI_1181, SYSTEM=RECTANGULAR
-40.97420187, 14.13925111, 199.91491098, -39.94310491, 13.38157189, 200.51720762
3, 0.
*SHELL SECTION, ELSET=ELEM_1181, COMPOSITE, ORIENTATION=ORI_1181
1.35778928, 3, CFRP, 0.
** SOURCE_TET=2974
*ELSET, ELSET=ELEM_1182
1182
*ORIENTATION, NAME=ORI_1182, SYSTEM=RECTANGULAR
-36.64924570, 17.66367561, 201.22003779, -35.66560834, 16.81452219, 201.77806648
3, 0.
*SHELL SECTION, ELSET=ELEM_1182, COMPOSITE, ORIENTATION=ORI_1182
1.36679351, 3, CFRP, 0.
** SOURCE_TET=3630
*ELSET, ELSET=ELEM_1183
1183
*ORIENTATION, NAME=ORI_1183, SYSTEM=RECTANGULAR
-34.94810743, 21.92367268, 200.92517501, -34.10919462, 20.93517809, 201.49006768
3, 0.
*SHELL SECTION, ELSET=ELEM_1183, COMPOSITE, ORIENTATION=ORI_1183
1.36700618, 3, CFRP, 0.
** SOURCE_TET=5857
*ELSET, ELSET=ELEM_1184
1184
*ORIENTATION, NAME=ORI_1184, SYSTEM=RECTANGULAR
43.90644704, 60.28638807, 176.00491218, 42.96927707, 59.88147009, 176.98356119
3, 0.
*SHELL SECTION, ELSET=ELEM_1184, COMPOSITE, ORIENTATION=ORI_1184
1.28304684, 3, CFRP, 0.
** SOURCE_TET=6589
*ELSET, ELSET=ELEM_1185
1185
*ORIENTATION, NAME=ORI_1185, SYSTEM=RECTANGULAR
45.44912266, 65.98598345, 169.16807844, 44.55228182, 65.65220369, 170.20936014
3, 0.
*SHELL SECTION, ELSET=ELEM_1185, COMPOSITE, ORIENTATION=ORI_1185
1.27777839, 3, CFRP, 0.
** SOURCE_TET=6411
*ELSET, ELSET=ELEM_1186
1186
*ORIENTATION, NAME=ORI_1186, SYSTEM=RECTANGULAR
39.57320539, 71.98471442, 166.32838914, 38.71250871, 71.60263727, 167.38348074
3, 0.
*SHELL SECTION, ELSET=ELEM_1186, COMPOSITE, ORIENTATION=ORI_1186
1.27406454, 3, CFRP, 0.
** SOURCE_TET=1696
*ELSET, ELSET=ELEM_1187
1187
*ORIENTATION, NAME=ORI_1187, SYSTEM=RECTANGULAR
-9.24921828, 30.96873221, 204.55526203, -9.22571347, 29.62302247, 204.98944269
3, 0.
*SHELL SECTION, ELSET=ELEM_1187, COMPOSITE, ORIENTATION=ORI_1187
1.41647434, 3, CFRP, 0.
** SOURCE_TET=1843
*ELSET, ELSET=ELEM_1188
1188
*ORIENTATION, NAME=ORI_1188, SYSTEM=RECTANGULAR
-5.49086235, 32.16026702, 204.44792812, -5.59472777, 30.82239297, 204.89436398
3, 0.
*SHELL SECTION, ELSET=ELEM_1188, COMPOSITE, ORIENTATION=ORI_1188
1.41466856, 3, CFRP, 0.
** SOURCE_TET=1456
*ELSET, ELSET=ELEM_1189
1189
*ORIENTATION, NAME=ORI_1189, SYSTEM=RECTANGULAR
-3.14962210, 29.98837359, 205.29845154, -3.36430217, 28.65225615, 205.70918581
3, 0.
*SHELL SECTION, ELSET=ELEM_1189, COMPOSITE, ORIENTATION=ORI_1189
1.43158960, 3, CFRP, 0.
** SOURCE_TET=1822
*ELSET, ELSET=ELEM_1190
1190
*ORIENTATION, NAME=ORI_1190, SYSTEM=RECTANGULAR
-29.65427880, 6.75388801, 205.20328773, -28.45181529, 6.13289775, 205.61371751
3, 0.
*SHELL SECTION, ELSET=ELEM_1190, COMPOSITE, ORIENTATION=ORI_1190
1.43476081, 3, CFRP, 0.
** SOURCE_TET=1752
*ELSET, ELSET=ELEM_1191
1191
*ORIENTATION, NAME=ORI_1191, SYSTEM=RECTANGULAR
-27.83094638, 8.35340692, 205.61355368, -26.65906114, 7.67243899, 206.01724623
3, 0.
*SHELL SECTION, ELSET=ELEM_1191, COMPOSITE, ORIENTATION=ORI_1191
1.44399261, 3, CFRP, 0.
** SOURCE_TET=1276
*ELSET, ELSET=ELEM_1192
1192
*ORIENTATION, NAME=ORI_1192, SYSTEM=RECTANGULAR
-25.17670924, 6.83764604, 206.51476885, -23.97281722, 6.18366160, 206.86540875
3, 0.
*SHELL SECTION, ELSET=ELEM_1192, COMPOSITE, ORIENTATION=ORI_1192
1.46685922, 3, CFRP, 0.
** SOURCE_TET=2703
*ELSET, ELSET=ELEM_1193
1193
*ORIENTATION, NAME=ORI_1193, SYSTEM=RECTANGULAR
-32.89731832, 7.22115089, 204.08364353, -31.69997862, 6.62322449, 204.54065738
3, 0.
*SHELL SECTION, ELSET=ELEM_1193, COMPOSITE, ORIENTATION=ORI_1193
1.40443349, 3, CFRP, 0.
** SOURCE_TET=2533
*ELSET, ELSET=ELEM_1194
1194
*ORIENTATION, NAME=ORI_1194, SYSTEM=RECTANGULAR
-33.43890608, 3.07884871, 204.09204296, -32.19336111, 2.59752194, 204.55781356
3, 0.
*SHELL SECTION, ELSET=ELEM_1194, COMPOSITE, ORIENTATION=ORI_1194
1.40492558, 3, CFRP, 0.
** SOURCE_TET=6259
*ELSET, ELSET=ELEM_1195
1195
*ORIENTATION, NAME=ORI_1195, SYSTEM=RECTANGULAR
1.51872347, 88.54047921, 155.25738548, 0.90350165, 87.96347184, 156.39253507
3, 0.
*SHELL SECTION, ELSET=ELEM_1195, COMPOSITE, ORIENTATION=ORI_1195
1.26748955, 3, CFRP, 0.
** SOURCE_TET=6300
*ELSET, ELSET=ELEM_1196
1196
*ORIENTATION, NAME=ORI_1196, SYSTEM=RECTANGULAR
-6.63159331, 86.78513522, 158.32747278, -7.19247947, 86.13091925, 159.44881491
3, 0.
*SHELL SECTION, ELSET=ELEM_1196, COMPOSITE, ORIENTATION=ORI_1196
1.26864088, 3, CFRP, 0.
** SOURCE_TET=6222
*ELSET, ELSET=ELEM_1197
1197
*ORIENTATION, NAME=ORI_1197, SYSTEM=RECTANGULAR
-7.22001044, 81.89042199, 166.28024811, -7.72136379, 81.10284711, 167.34249603
3, 0.
*SHELL SECTION, ELSET=ELEM_1197, COMPOSITE, ORIENTATION=ORI_1197
1.27466035, 3, CFRP, 0.
** SOURCE_TET=4375
*ELSET, ELSET=ELEM_1198
1198
*ORIENTATION, NAME=ORI_1198, SYSTEM=RECTANGULAR
-39.94829220, -14.88774258, 200.33313657, -38.65604441, -14.84039592, 200.90572188
3, 0.
*SHELL SECTION, ELSET=ELEM_1198, COMPOSITE, ORIENTATION=ORI_1198
1.35702634, 3, CFRP, 0.
** SOURCE_TET=2524
*ELSET, ELSET=ELEM_1199
1199
*ORIENTATION, NAME=ORI_1199, SYSTEM=RECTANGULAR
-33.20570283, -19.57459009, 202.14483607, -31.92778247, -19.27337382, 202.67037227
3, 0.
*SHELL SECTION, ELSET=ELEM_1199, COMPOSITE, ORIENTATION=ORI_1199
1.37716091, 3, CFRP, 0.
** SOURCE_TET=2666
*ELSET, ELSET=ELEM_1200
1200
*ORIENTATION, NAME=ORI_1200, SYSTEM=RECTANGULAR
-37.14765474, -19.53201748, 200.64231908, -35.86856485, -19.29362083, 201.19648160
3, 0.
*SHELL SECTION, ELSET=ELEM_1200, COMPOSITE, ORIENTATION=ORI_1200
1.36466777, 3, CFRP, 0.
** SOURCE_TET=1926
*ELSET, ELSET=ELEM_1201
1201
*ORIENTATION, NAME=ORI_1201, SYSTEM=RECTANGULAR
-16.56243226, 27.92885603, 204.51545414, -16.19319359, 26.63980379, 204.96490617
3, 0.
*SHELL SECTION, ELSET=ELEM_1201, COMPOSITE, ORIENTATION=ORI_1201
1.41336143, 3, CFRP, 0.
** SOURCE_TET=1503
*ELSET, ELSET=ELEM_1202
1202
*ORIENTATION, NAME=ORI_1202, SYSTEM=RECTANGULAR
-18.95515080, 25.38543705, 204.76746348, -18.43027036, 24.14716961, 205.20472115
3, 0.
*SHELL SECTION, ELSET=ELEM_1202, COMPOSITE, ORIENTATION=ORI_1202
1.42057729, 3, CFRP, 0.
** SOURCE_TET=1724
*ELSET, ELSET=ELEM_1203
1203
*ORIENTATION, NAME=ORI_1203, SYSTEM=RECTANGULAR
-15.97474260, 31.09075632, 203.60495650, -15.67730032, 29.79123954, 204.07695675
3, 0.
*SHELL SECTION, ELSET=ELEM_1203, COMPOSITE, ORIENTATION=ORI_1203
1.40054107, 3, CFRP, 0.
** SOURCE_TET=2026
*ELSET, ELSET=ELEM_1204
1204
*ORIENTATION, NAME=ORI_1204, SYSTEM=RECTANGULAR
-12.16813604, 32.92750688, 203.56875838, -12.04192119, 31.59932374, 204.03779929
3, 0.
*SHELL SECTION, ELSET=ELEM_1204, COMPOSITE, ORIENTATION=ORI_1204
1.39937770, 3, CFRP, 0.
** SOURCE_TET=2094
*ELSET, ELSET=ELEM_1205
1205
*ORIENTATION, NAME=ORI_1205, SYSTEM=RECTANGULAR
-22.04378536, 24.92816241, 204.20827729, -21.44754632, 23.72722202, 204.65798962
3, 0.
*SHELL SECTION, ELSET=ELEM_1205, COMPOSITE, ORIENTATION=ORI_1205
1.41156423, 3, CFRP, 0.
** SOURCE_TET=4461
*ELSET, ELSET=ELEM_1206
1206
*ORIENTATION, NAME=ORI_1206, SYSTEM=RECTANGULAR
-24.67333185, 28.41638915, 202.52208245, -24.11518815, 27.22129346, 203.03220196
3, 0.
*SHELL SECTION, ELSET=ELEM_1206, COMPOSITE, ORIENTATION=ORI_1206
1.38262594, 3, CFRP, 0.
** SOURCE_TET=3018
*ELSET, ELSET=ELEM_1207
1207
*ORIENTATION, NAME=ORI_1207, SYSTEM=RECTANGULAR
-23.12323596, 32.89657032, 201.43094162, -22.67701672, 31.66887443, 201.97283756
3, 0.
*SHELL SECTION, ELSET=ELEM_1207, COMPOSITE, ORIENTATION=ORI_1207
1.37269139, 3, CFRP, 0.
** SOURCE_TET=2823
*ELSET, ELSET=ELEM_1208
1208
*ORIENTATION, NAME=ORI_1208, SYSTEM=RECTANGULAR
-18.76019077, 33.86598812, 202.09250692, -18.47675970, 32.58127094, 202.61132152
3, 0.
*SHELL SECTION, ELSET=ELEM_1208, COMPOSITE, ORIENTATION=ORI_1208
1.37626314, 3, CFRP, 0.
** SOURCE_TET=3105
*ELSET, ELSET=ELEM_1209
1209
*ORIENTATION, NAME=ORI_1209, SYSTEM=RECTANGULAR
-24.24440309, 21.11266126, 204.62148920, -23.47174336, 20.00739455, 205.04737938
3, 0.
*SHELL SECTION, ELSET=ELEM_1209, COMPOSITE, ORIENTATION=ORI_1209
1.41939294, 3, CFRP, 0.
** SOURCE_TET=2568
*ELSET, ELSET=ELEM_1210
1210
*ORIENTATION, NAME=ORI_1210, SYSTEM=RECTANGULAR
-22.32672667, 18.28137768, 205.66128229, -21.51292553, 17.19336390, 206.05365166
3, 0.
*SHELL SECTION, ELSET=ELEM_1210, COMPOSITE, ORIENTATION=ORI_1210
1.44003391, 3, CFRP, 0.
** SOURCE_TET=1247
*ELSET, ELSET=ELEM_1211
1211
*ORIENTATION, NAME=ORI_1211, SYSTEM=RECTANGULAR
-19.19968987, 18.46101890, 206.33960770, -18.48130394, 17.29893345, 206.70495558
3, 0.
*SHELL SECTION, ELSET=ELEM_1211, COMPOSITE, ORIENTATION=ORI_1211
1.46687627, 3, CFRP, 0.
** SOURCE_TET=2233
*ELSET, ELSET=ELEM_1212
1212
*ORIENTATION, NAME=ORI_1212, SYSTEM=RECTANGULAR
-34.90897282, 10.32307449, 203.05561060, -33.76343027, 9.65547034, 203.54758314
3, 0.
*SHELL SECTION, ELSET=ELEM_1212, COMPOSITE, ORIENTATION=ORI_1212
1.39167249, 3, CFRP, 0.
** SOURCE_TET=3184
*ELSET, ELSET=ELEM_1213
1213
*ORIENTATION, NAME=ORI_1213, SYSTEM=RECTANGULAR
-29.90469755, 16.03764152, 203.97203453, -28.91364541, 15.13698856, 204.42661114
3, 0.
*SHELL SECTION, ELSET=ELEM_1213, COMPOSITE, ORIENTATION=ORI_1213
1.40545678, 3, CFRP, 0.
** SOURCE_TET=2416
*ELSET, ELSET=ELEM_1214
1214
*ORIENTATION, NAME=ORI_1214, SYSTEM=RECTANGULAR
-27.53426176, 13.90071728, 205.03815952, -26.51157463, 13.02209393, 205.46492882
3, 0.
*SHELL SECTION, ELSET=ELEM_1214, COMPOSITE, ORIENTATION=ORI_1214
1.42240489, 3, CFRP, 0.
** SOURCE_TET=3165
*ELSET, ELSET=ELEM_1215
1215
*ORIENTATION, NAME=ORI_1215, SYSTEM=RECTANGULAR
-33.37141575, 14.58691721, 203.03669959, -32.34204237, 13.74909856, 203.52501336
3, 0.
*SHELL SECTION, ELSET=ELEM_1215, COMPOSITE, ORIENTATION=ORI_1215
1.39337909, 3, CFRP, 0.
** SOURCE_TET=1117
*ELSET, ELSET=ELEM_1216
1216
*ORIENTATION, NAME=ORI_1216, SYSTEM=RECTANGULAR
-27.17206888, 10.95746251, 205.55440634, -26.09204921, 10.13872553, 205.95842028
3, 0.
*SHELL SECTION, ELSET=ELEM_1216, COMPOSITE, ORIENTATION=ORI_1216
1.44413722, 3, CFRP, 0.
** SOURCE_TET=3626
*ELSET, ELSET=ELEM_1217
1217
*ORIENTATION, NAME=ORI_1217, SYSTEM=RECTANGULAR
-28.18536315, 20.35339242, 203.68910829, -27.35386579, 19.31400743, 204.16690634
3, 0.
*SHELL SECTION, ELSET=ELEM_1217, COMPOSITE, ORIENTATION=ORI_1217
1.39274549, 3, CFRP, 0.
** SOURCE_TET=5973
*ELSET, ELSET=ELEM_1218
1218
*ORIENTATION, NAME=ORI_1218, SYSTEM=RECTANGULAR
-29.95562935, 23.10521141, 202.48116594, -29.16516055, 22.04768941, 202.98792652
3, 0.
*SHELL SECTION, ELSET=ELEM_1218, COMPOSITE, ORIENTATION=ORI_1218
1.37975466, 3, CFRP, 0.
** SOURCE_TET=5056
*ELSET, ELSET=ELEM_1219
1219
*ORIENTATION, NAME=ORI_1219, SYSTEM=RECTANGULAR
-28.63223426, 27.39833025, 201.72042051, -27.99929260, 26.24859785, 202.24720346
3, 0.
*SHELL SECTION, ELSET=ELEM_1219, COMPOSITE, ORIENTATION=ORI_1219
1.37497270, 3, CFRP, 0.
** SOURCE_TET=2940
*ELSET, ELSET=ELEM_1220
1220
*ORIENTATION, NAME=ORI_1220, SYSTEM=RECTANGULAR
20.10791416, 12.98777461, 207.07036149, 18.80729035, 12.53382379, 207.39021514
3, 0.
*SHELL SECTION, ELSET=ELEM_1220, COMPOSITE, ORIENTATION=ORI_1220
1.49713790, 3, CFRP, 0.
** SOURCE_TET=1662
*ELSET, ELSET=ELEM_1221
1221
*ORIENTATION, NAME=ORI_1221, SYSTEM=RECTANGULAR
21.00803244, 10.80318593, 207.14741385, 19.67682526, 10.44647554, 207.46466001
3, 0.
*SHELL SECTION, ELSET=ELEM_1221, COMPOSITE, ORIENTATION=ORI_1221
1.50043094, 3, CFRP, 0.
** SOURCE_TET=2146
*ELSET, ELSET=ELEM_1222
1222
*ORIENTATION, NAME=ORI_1222, SYSTEM=RECTANGULAR
19.64933821, 9.00600387, 207.61386546, 18.29512690, 8.71848302, 207.90273134
3, 0.
*SHELL SECTION, ELSET=ELEM_1222, COMPOSITE, ORIENTATION=ORI_1222
1.53847504, 3, CFRP, 0.
** SOURCE_TET=442
*ELSET, ELSET=ELEM_1223
1223
*ORIENTATION, NAME=ORI_1223, SYSTEM=RECTANGULAR
18.71412970, 17.57554051, 206.60557430, 17.50984678, 16.92047210, 206.95283216
3, 0.
*SHELL SECTION, ELSET=ELEM_1223, COMPOSITE, ORIENTATION=ORI_1223
1.47505856, 3, CFRP, 0.
** SOURCE_TET=3027
*ELSET, ELSET=ELEM_1224
1224
*ORIENTATION, NAME=ORI_1224, SYSTEM=RECTANGULAR
21.48300900, 14.75468162, 206.52173942, 20.19716654, 14.28008609, 206.87011886
3, 0.
*SHELL SECTION, ELSET=ELEM_1224, COMPOSITE, ORIENTATION=ORI_1224
1.47701561, 3, CFRP, 0.
** SOURCE_TET=553
*ELSET, ELSET=ELEM_1225
1225
*ORIENTATION, NAME=ORI_1225, SYSTEM=RECTANGULAR
21.03227412, 17.16872774, 206.21696194, 19.78033156, 16.61472175, 206.57152817
3, 0.
*SHELL SECTION, ELSET=ELEM_1225, COMPOSITE, ORIENTATION=ORI_1225
1.46804094, 3, CFRP, 0.
** SOURCE_TET=538
*ELSET, ELSET=ELEM_1226
1226
*ORIENTATION, NAME=ORI_1226, SYSTEM=RECTANGULAR
18.13870554, 19.71659375, 206.32044396, 17.00423794, 18.95087388, 206.67633206
3, 0.
*SHELL SECTION, ELSET=ELEM_1226, COMPOSITE, ORIENTATION=ORI_1226
1.46448517, 3, CFRP, 0.
** SOURCE_TET=865
*ELSET, ELSET=ELEM_1227
1227
*ORIENTATION, NAME=ORI_1227, SYSTEM=RECTANGULAR
13.95447746, 18.38005572, 207.27165220, 12.92084063, 17.46468591, 207.57774535
3, 0.
*SHELL SECTION, ELSET=ELEM_1227, COMPOSITE, ORIENTATION=ORI_1227
1.52327168, 3, CFRP, 0.
** SOURCE_TET=612
*ELSET, ELSET=ELEM_1228
1228
*ORIENTATION, NAME=ORI_1228, SYSTEM=RECTANGULAR
15.79068336, 20.11844587, 206.65425207, 14.70359447, 19.28126646, 206.99684275
3, 0.
*SHELL SECTION, ELSET=ELEM_1228, COMPOSITE, ORIENTATION=ORI_1228
1.47495782, 3, CFRP, 0.
** SOURCE_TET=1278
*ELSET, ELSET=ELEM_1229
1229
*ORIENTATION, NAME=ORI_1229, SYSTEM=RECTANGULAR
23.95310683, 14.56365534, 205.96433465, 22.65353039, 14.15320066, 206.34199592
3, 0.
*SHELL SECTION, ELSET=ELEM_1229, COMPOSITE, ORIENTATION=ORI_1229
1.46035624, 3, CFRP, 0.
** SOURCE_TET=446
*ELSET, ELSET=ELEM_1230
1230
*ORIENTATION, NAME=ORI_1230, SYSTEM=RECTANGULAR
24.97817003, 12.17448134, 206.02296553, 23.65235038, 11.85904306, 206.40072335
3, 0.
*SHELL SECTION, ELSET=ELEM_1230, COMPOSITE, ORIENTATION=ORI_1230
1.46243989, 3, CFRP, 0.
** SOURCE_TET=700
*ELSET, ELSET=ELEM_1231
1231
*ORIENTATION, NAME=ORI_1231, SYSTEM=RECTANGULAR
23.40834798, 10.18028306, 206.65779839, 22.06674808, 9.89887747, 207.00553478
3, 0.
*SHELL SECTION, ELSET=ELEM_1231, COMPOSITE, ORIENTATION=ORI_1231
1.48213363, 3, CFRP, 0.
** SOURCE_TET=4206
*ELSET, ELSET=ELEM_1232
1232
*ORIENTATION, NAME=ORI_1232, SYSTEM=RECTANGULAR
49.99823175, -22.34719674, 193.35166631, 49.15193929, -21.47595720, 194.07604933
3, 0.
*SHELL SECTION, ELSET=ELEM_1232, COMPOSITE, ORIENTATION=ORI_1232
1.31963706, 3, CFRP, 0.
** SOURCE_TET=3804
*ELSET, ELSET=ELEM_1233
1233
*ORIENTATION, NAME=ORI_1233, SYSTEM=RECTANGULAR
45.16032546, -24.16075059, 195.60311300, 44.34107827, -23.24597136, 196.30454938
3, 0.
*SHELL SECTION, ELSET=ELEM_1233, COMPOSITE, ORIENTATION=ORI_1233
1.32661855, 3, CFRP, 0.
** SOURCE_TET=5943
*ELSET, ELSET=ELEM_1234
1234
*ORIENTATION, NAME=ORI_1234, SYSTEM=RECTANGULAR
40.59810974, -15.49012041, 199.90130737, 39.57617800, -14.71435667, 200.49615705
3, 0.
*SHELL SECTION, ELSET=ELEM_1234, COMPOSITE, ORIENTATION=ORI_1234
1.35549796, 3, CFRP, 0.
** SOURCE_TET=5268
*ELSET, ELSET=ELEM_1235
1235
*ORIENTATION, NAME=ORI_1235, SYSTEM=RECTANGULAR
41.49692125, -20.22105802, 198.54399836, 40.59397262, -19.32518981, 199.16214392
3, 0.
*SHELL SECTION, ELSET=ELEM_1235, COMPOSITE, ORIENTATION=ORI_1235
1.34529328, 3, CFRP, 0.
** SOURCE_TET=5620
*ELSET, ELSET=ELEM_1236
1236
*ORIENTATION, NAME=ORI_1236, SYSTEM=RECTANGULAR
53.50842874, -26.98625966, 189.78535123, 52.74578500, -26.09301441, 190.57306148
3, 0.
*SHELL SECTION, ELSET=ELEM_1236, COMPOSITE, ORIENTATION=ORI_1236
1.31052411, 3, CFRP, 0.
** SOURCE_TET=5680
*ELSET, ELSET=ELEM_1237
1237
*ORIENTATION, NAME=ORI_1237, SYSTEM=RECTANGULAR
61.39970696, -18.53468107, 186.34073418, 60.56224586, -17.77841471, 187.19321297
3, 0.
*SHELL SECTION, ELSET=ELEM_1237, COMPOSITE, ORIENTATION=ORI_1237
1.29828525, 3, CFRP, 0.
** SOURCE_TET=4703
*ELSET, ELSET=ELEM_1238
1238
*ORIENTATION, NAME=ORI_1238, SYSTEM=RECTANGULAR
59.10549204, -25.00523810, 186.35990322, 58.33023496, -24.18263944, 187.20979021
3, 0.
*SHELL SECTION, ELSET=ELEM_1238, COMPOSITE, ORIENTATION=ORI_1238
1.30206609, 3, CFRP, 0.
** SOURCE_TET=6855
*ELSET, ELSET=ELEM_1239
1239
*ORIENTATION, NAME=ORI_1239, SYSTEM=RECTANGULAR
20.22444442, 90.27268358, 146.27740798, 19.50727141, 89.95681678, 147.45464672
3, 0.
*SHELL SECTION, ELSET=ELEM_1239, COMPOSITE, ORIENTATION=ORI_1239
1.26388049, 3, CFRP, 0.
** SOURCE_TET=6487
*ELSET, ELSET=ELEM_1240
1240
*ORIENTATION, NAME=ORI_1240, SYSTEM=RECTANGULAR
2.10821160, 93.01401116, 144.54532457, 1.44517373, 92.60062558, 145.72409221
3, 0.
*SHELL SECTION, ELSET=ELEM_1240, COMPOSITE, ORIENTATION=ORI_1240
1.26351392, 3, CFRP, 0.
** SOURCE_TET=6176
*ELSET, ELSET=ELEM_1241
1241
*ORIENTATION, NAME=ORI_1241, SYSTEM=RECTANGULAR
11.55592246, 94.00969376, 139.84891996, 10.86263583, 93.68077944, 141.03684632
3, 0.
*SHELL SECTION, ELSET=ELEM_1241, COMPOSITE, ORIENTATION=ORI_1241
1.26258457, 3, CFRP, 0.
** SOURCE_TET=3872
*ELSET, ELSET=ELEM_1242
1242
*ORIENTATION, NAME=ORI_1242, SYSTEM=RECTANGULAR
-40.63647152, 4.42979158, 201.07495294, -39.44361736, 3.91294220, 201.63169855
3, 0.
*SHELL SECTION, ELSET=ELEM_1242, COMPOSITE, ORIENTATION=ORI_1242
1.36412442, 3, CFRP, 0.
** SOURCE_TET=4337
*ELSET, ELSET=ELEM_1243
1243
*ORIENTATION, NAME=ORI_1243, SYSTEM=RECTANGULAR
-39.50889005, 9.56062615, 201.22268550, -38.39850916, 8.88063375, 201.77464983
3, 0.
*SHELL SECTION, ELSET=ELEM_1243, COMPOSITE, ORIENTATION=ORI_1243
1.36687982, 3, CFRP, 0.
** SOURCE_TET=3058
*ELSET, ELSET=ELEM_1244
1244
*ORIENTATION, NAME=ORI_1244, SYSTEM=RECTANGULAR
-36.57129338, 1.04438803, 202.93282754, -35.29975249, 0.67545021, 203.42988754
3, 0.
*SHELL SECTION, ELSET=ELEM_1244, COMPOSITE, ORIENTATION=ORI_1244
1.38548040, 3, CFRP, 0.
** SOURCE_TET=2493
*ELSET, ELSET=ELEM_1245
1245
*ORIENTATION, NAME=ORI_1245, SYSTEM=RECTANGULAR
-4.71141784, 35.80123802, 203.16045294, -4.91087325, 34.48744480, 203.64435881
3, 0.
*SHELL SECTION, ELSET=ELEM_1245, COMPOSITE, ORIENTATION=ORI_1245
1.38956833, 3, CFRP, 0.
** SOURCE_TET=2263
*ELSET, ELSET=ELEM_1246
1246
*ORIENTATION, NAME=ORI_1246, SYSTEM=RECTANGULAR
-8.25380020, 38.71246291, 201.71964778, -8.32827814, 37.40709228, 202.25859171
3, 0.
*SHELL SECTION, ELSET=ELEM_1246, COMPOSITE, ORIENTATION=ORI_1246
1.37400687, 3, CFRP, 0.
** SOURCE_TET=2788
*ELSET, ELSET=ELEM_1247
1247
*ORIENTATION, NAME=ORI_1247, SYSTEM=RECTANGULAR
-11.90396045, 37.07562403, 202.01318107, -11.87370648, 35.76483460, 202.54319593
3, 0.
*SHELL SECTION, ELSET=ELEM_1247, COMPOSITE, ORIENTATION=ORI_1247
1.37642622, 3, CFRP, 0.
** SOURCE_TET=2251
*ELSET, ELSET=ELEM_1248
1248
*ORIENTATION, NAME=ORI_1248, SYSTEM=RECTANGULAR
-1.01527420, 36.82826537, 202.88013554, -1.32009707, 35.53802701, 203.37244438
3, 0.
*SHELL SECTION, ELSET=ELEM_1248, COMPOSITE, ORIENTATION=ORI_1248
1.38640869, 3, CFRP, 0.
** SOURCE_TET=1283
*ELSET, ELSET=ELEM_1249
1249
*ORIENTATION, NAME=ORI_1249, SYSTEM=RECTANGULAR
-0.32889068, 29.80842011, 205.41263154, -0.63779103, 28.49108124, 205.82396944
3, 0.
*SHELL SECTION, ELSET=ELEM_1249, COMPOSITE, ORIENTATION=ORI_1249
1.43372452, 3, CFRP, 0.
** SOURCE_TET=2064
*ELSET, ELSET=ELEM_1250
1250
*ORIENTATION, NAME=ORI_1250, SYSTEM=RECTANGULAR
1.89435422, 31.17062087, 204.94289273, 1.46293169, 29.89137536, 205.36408810
3, 0.
*SHELL SECTION, ELSET=ELEM_1250, COMPOSITE, ORIENTATION=ORI_1250
1.42515838, 3, CFRP, 0.
** SOURCE_TET=3073
*ELSET, ELSET=ELEM_1251
1251
*ORIENTATION, NAME=ORI_1251, SYSTEM=RECTANGULAR
1.91524696, 34.34462871, 203.82727645, 1.48031830, 33.08090170, 204.28969521
3, 0.
*SHELL SECTION, ELSET=ELEM_1251, COMPOSITE, ORIENTATION=ORI_1251
1.39988708, 3, CFRP, 0.
** SOURCE_TET=877
*ELSET, ELSET=ELEM_1252
1252
*ORIENTATION, NAME=ORI_1252, SYSTEM=RECTANGULAR
7.76729738, -25.28219602, 206.38998490, 7.69666813, -23.91723879, 206.75316979
3, 0.
*SHELL SECTION, ELSET=ELEM_1252, COMPOSITE, ORIENTATION=ORI_1252
1.46905398, 3, CFRP, 0.
** SOURCE_TET=1197
*ELSET, ELSET=ELEM_1253
1253
*ORIENTATION, NAME=ORI_1253, SYSTEM=RECTANGULAR
7.21747034, -22.25454965, 207.19961272, 7.12389294, -20.87796923, 207.50988618
3, 0.
*SHELL SECTION, ELSET=ELEM_1253, COMPOSITE, ORIENTATION=ORI_1253
1.51977849, 3, CFRP, 0.
** SOURCE_TET=2648
*ELSET, ELSET=ELEM_1254
1254
*ORIENTATION, NAME=ORI_1254, SYSTEM=RECTANGULAR
5.04332325, -21.37217920, 207.53533358, 5.03578334, -19.98871371, 207.82853386
3, 0.
*SHELL SECTION, ELSET=ELEM_1254, COMPOSITE, ORIENTATION=ORI_1254
1.53720069, 3, CFRP, 0.
** SOURCE_TET=1323
*ELSET, ELSET=ELEM_1255
1255
*ORIENTATION, NAME=ORI_1255, SYSTEM=RECTANGULAR
10.21377882, -26.37216153, 205.88329532, 10.04939072, -25.01851183, 206.25827405
3, 0.
*SHELL SECTION, ELSET=ELEM_1255, COMPOSITE, ORIENTATION=ORI_1255
1.44499981, 3, CFRP, 0.
** SOURCE_TET=2287
*ELSET, ELSET=ELEM_1256
1256
*ORIENTATION, NAME=ORI_1256, SYSTEM=RECTANGULAR
11.72496290, -28.91532538, 204.96851213, 11.55674717, -27.57772533, 205.39574690
3, 0.
*SHELL SECTION, ELSET=ELEM_1256, COMPOSITE, ORIENTATION=ORI_1256
1.42579007, 3, CFRP, 0.
** SOURCE_TET=2077
*ELSET, ELSET=ELEM_1257
1257
*ORIENTATION, NAME=ORI_1257, SYSTEM=RECTANGULAR
9.78211688, -31.36083906, 204.37039577, 9.70781331, -30.02388483, 204.82540386
3, 0.
*SHELL SECTION, ELSET=ELEM_1257, COMPOSITE, ORIENTATION=ORI_1257
1.41605759, 3, CFRP, 0.
** SOURCE_TET=499
*ELSET, ELSET=ELEM_1258
1258
*ORIENTATION, NAME=ORI_1258, SYSTEM=RECTANGULAR
11.82913939, -24.24827016, 206.26055528, 11.54520459, -22.91185104, 206.62574697
3, 0.
*SHELL SECTION, ELSET=ELEM_1258, COMPOSITE, ORIENTATION=ORI_1258
1.46432328, 3, CFRP, 0.
** SOURCE_TET=1674
*ELSET, ELSET=ELEM_1259
1259
*ORIENTATION, NAME=ORI_1259, SYSTEM=RECTANGULAR
11.28148479, -21.59997821, 206.95992943, 10.90180733, -20.27741382, 207.28653082
3, 0.
*SHELL SECTION, ELSET=ELEM_1259, COMPOSITE, ORIENTATION=ORI_1259
1.49868023, 3, CFRP, 0.
** SOURCE_TET=1366
*ELSET, ELSET=ELEM_1260
1260
*ORIENTATION, NAME=ORI_1260, SYSTEM=RECTANGULAR
9.11598827, -20.70022026, 207.38145828, 8.84056713, -19.34719339, 207.68717300
3, 0.
*SHELL SECTION, ELSET=ELEM_1260, COMPOSITE, ORIENTATION=ORI_1260
1.52955782, 3, CFRP, 0.
** SOURCE_TET=3299
*ELSET, ELSET=ELEM_1261
1261
*ORIENTATION, NAME=ORI_1261, SYSTEM=RECTANGULAR
-35.92349290, -28.38552952, 198.72022687, -34.73885585, -27.93147174, 199.34510013
3, 0.
*SHELL SECTION, ELSET=ELEM_1261, COMPOSITE, ORIENTATION=ORI_1261
1.34721339, 3, CFRP, 0.
** SOURCE_TET=3794
*ELSET, ELSET=ELEM_1262
1262
*ORIENTATION, NAME=ORI_1262, SYSTEM=RECTANGULAR
-27.04668168, -29.96933257, 201.34174480, -25.93465952, -29.29302538, 201.89493131
3, 0.
*SHELL SECTION, ELSET=ELEM_1262, COMPOSITE, ORIENTATION=ORI_1262
1.36939240, 3, CFRP, 0.
** SOURCE_TET=3267
*ELSET, ELSET=ELEM_1263
1263
*ORIENTATION, NAME=ORI_1263, SYSTEM=RECTANGULAR
-26.40590392, -33.92344552, 200.16722059, -25.33488492, -33.19764376, 200.73829861
3, 0.
*SHELL SECTION, ELSET=ELEM_1263, COMPOSITE, ORIENTATION=ORI_1263
1.36062407, 3, CFRP, 0.
** SOURCE_TET=3040
*ELSET, ELSET=ELEM_1264
1264
*ORIENTATION, NAME=ORI_1264, SYSTEM=RECTANGULAR
-31.09881611, -27.70949962, 200.76899118, -29.91795181, -27.17005490, 201.32984667
3, 0.
*SHELL SECTION, ELSET=ELEM_1264, COMPOSITE, ORIENTATION=ORI_1264
1.35945213, 3, CFRP, 0.
** SOURCE_TET=5269
*ELSET, ELSET=ELEM_1265
1265
*ORIENTATION, NAME=ORI_1265, SYSTEM=RECTANGULAR
57.37948448, -44.55750517, 178.10757247, 56.98677841, -43.59607775, 179.06748875
3, 0.
*SHELL SECTION, ELSET=ELEM_1265, COMPOSITE, ORIENTATION=ORI_1265
1.28724933, 3, CFRP, 0.
** SOURCE_TET=4915
*ELSET, ELSET=ELEM_1266
1266
*ORIENTATION, NAME=ORI_1266, SYSTEM=RECTANGULAR
57.97346981, -37.10274162, 182.06187708, 57.41896211, -36.18449880, 182.98347966
3, 0.
*SHELL SECTION, ELSET=ELEM_1266, COMPOSITE, ORIENTATION=ORI_1266
1.29341555, 3, CFRP, 0.
** SOURCE_TET=5933
*ELSET, ELSET=ELEM_1267
1267
*ORIENTATION, NAME=ORI_1267, SYSTEM=RECTANGULAR
52.51413353, -34.21426605, 187.62745230, 51.90312489, -33.24488198, 188.45628460
3, 0.
*SHELL SECTION, ELSET=ELEM_1267, COMPOSITE, ORIENTATION=ORI_1267
1.30351222, 3, CFRP, 0.
** SOURCE_TET=4128
*ELSET, ELSET=ELEM_1268
1268
*ORIENTATION, NAME=ORI_1268, SYSTEM=RECTANGULAR
62.32090599, -48.19500725, 170.71182214, 62.02501545, -47.26985147, 171.73970131
3, 0.
*SHELL SECTION, ELSET=ELEM_1268, COMPOSITE, ORIENTATION=ORI_1268
1.27761698, 3, CFRP, 0.
** SOURCE_TET=4896
*ELSET, ELSET=ELEM_1269
1269
*ORIENTATION, NAME=ORI_1269, SYSTEM=RECTANGULAR
58.89958787, -56.80998767, 166.59389392, 58.74020046, -55.89787522, 167.66284039
3, 0.
*SHELL SECTION, ELSET=ELEM_1269, COMPOSITE, ORIENTATION=ORI_1269
1.27502668, 3, CFRP, 0.
** SOURCE_TET=4604
*ELSET, ELSET=ELEM_1270
1270
*ORIENTATION, NAME=ORI_1270, SYSTEM=RECTANGULAR
50.51778631, -60.45435297, 170.85522933, 50.42111041, -59.48901878, 171.88420148
3, 0.
*SHELL SECTION, ELSET=ELEM_1270, COMPOSITE, ORIENTATION=ORI_1270
1.27874386, 3, CFRP, 0.
** SOURCE_TET=579
*ELSET, ELSET=ELEM_1271
1271
*ORIENTATION, NAME=ORI_1271, SYSTEM=RECTANGULAR
-20.96258184, 6.21413511, 207.55730024, -19.73232964, 5.58035458, 207.84850763
3, 0.
*SHELL SECTION, ELSET=ELEM_1271, COMPOSITE, ORIENTATION=ORI_1271
1.52987230, 3, CFRP, 0.
** SOURCE_TET=18
*ELSET, ELSET=ELEM_1272
1272
*ORIENTATION, NAME=ORI_1272, SYSTEM=RECTANGULAR
-21.74205891, 8.35506034, 207.23169749, -20.59467013, 7.58823342, 207.54068850
3, 0.
*SHELL SECTION, ELSET=ELEM_1272, COMPOSITE, ORIENTATION=ORI_1272
1.50816381, 3, CFRP, 0.
** SOURCE_TET=114
*ELSET, ELSET=ELEM_1273
1273
*ORIENTATION, NAME=ORI_1273, SYSTEM=RECTANGULAR
-23.74793463, 8.52148191, 206.74820944, -22.59630616, 7.77329671, 207.08580499
3, 0.
*SHELL SECTION, ELSET=ELEM_1273, COMPOSITE, ORIENTATION=ORI_1273
1.48814487, 3, CFRP, 0.
** SOURCE_TET=5518
*ELSET, ELSET=ELEM_1274
1274
*ORIENTATION, NAME=ORI_1274, SYSTEM=RECTANGULAR
-60.26230346, 60.87512636, 160.82745824, -60.20180799, 59.99068594, 161.92932277
3, 0.
*SHELL SECTION, ELSET=ELEM_1274, COMPOSITE, ORIENTATION=ORI_1274
1.27192330, 3, CFRP, 0.
** SOURCE_TET=6953
*ELSET, ELSET=ELEM_1275
1275
*ORIENTATION, NAME=ORI_1275, SYSTEM=RECTANGULAR
-68.81153281, 47.56438542, 164.00512239, -68.56315533, 46.69302648, 165.09095950
3, 0.
*SHELL SECTION, ELSET=ELEM_1275, COMPOSITE, ORIENTATION=ORI_1275
1.27228916, 3, CFRP, 0.
** SOURCE_TET=6206
*ELSET, ELSET=ELEM_1276
1276
*ORIENTATION, NAME=ORI_1276, SYSTEM=RECTANGULAR
-67.37619114, 54.56014204, 158.93075068, -67.23957701, 53.70202905, 160.04653681
3, 0.
*SHELL SECTION, ELSET=ELEM_1276, COMPOSITE, ORIENTATION=ORI_1276
1.26992702, 3, CFRP, 0.
** SOURCE_TET=6012
*ELSET, ELSET=ELEM_1277
1277
*ORIENTATION, NAME=ORI_1277, SYSTEM=RECTANGULAR
-45.22601405, 71.70958605, 162.18555317, -45.34917993, 70.83238344, 163.28798038
3, 0.
*SHELL SECTION, ELSET=ELEM_1277, COMPOSITE, ORIENTATION=ORI_1277
1.27181375, 3, CFRP, 0.
** SOURCE_TET=5785
*ELSET, ELSET=ELEM_1278
1278
*ORIENTATION, NAME=ORI_1278, SYSTEM=RECTANGULAR
-51.36804385, 72.84435052, 153.90008360, -51.57187233, 72.02727666, 155.03623687
3, 0.
*SHELL SECTION, ELSET=ELEM_1278, COMPOSITE, ORIENTATION=ORI_1278
1.26677334, 3, CFRP, 0.
** SOURCE_TET=6686
*ELSET, ELSET=ELEM_1279
1279
*ORIENTATION, NAME=ORI_1279, SYSTEM=RECTANGULAR
-59.21210206, 67.21603694, 153.38553833, -59.31127453, 66.39442605, 154.53232531
3, 0.
*SHELL SECTION, ELSET=ELEM_1279, COMPOSITE, ORIENTATION=ORI_1279
1.26676464, 3, CFRP, 0.
** SOURCE_TET=1026
*ELSET, ELSET=ELEM_1280
1280
*ORIENTATION, NAME=ORI_1280, SYSTEM=RECTANGULAR
16.90812066, -4.64657647, 208.43369665, 15.70038331, -3.94938547, 208.66884598
3, 0.
*SHELL SECTION, ELSET=ELEM_1280, COMPOSITE, ORIENTATION=ORI_1280
1.59020972, 3, CFRP, 0.
** SOURCE_TET=2757
*ELSET, ELSET=ELEM_1281
1281
*ORIENTATION, NAME=ORI_1281, SYSTEM=RECTANGULAR
15.20251016, -3.18069948, 208.77028053, 13.91651369, -2.62773199, 208.97137760
3, 0.
*SHELL SECTION, ELSET=ELEM_1281, COMPOSITE, ORIENTATION=ORI_1281
1.59180713, 3, CFRP, 0.
** SOURCE_TET=5339
*ELSET, ELSET=ELEM_1282
1282
*ORIENTATION, NAME=ORI_1282, SYSTEM=RECTANGULAR
86.50871493, 33.30530808, 144.73146554, 85.87164122, 33.74332207, 145.91564493
3, 0.
*SHELL SECTION, ELSET=ELEM_1282, COMPOSITE, ORIENTATION=ORI_1282
1.26333594, 3, CFRP, 0.
** SOURCE_TET=5713
*ELSET, ELSET=ELEM_1283
1283
*ORIENTATION, NAME=ORI_1283, SYSTEM=RECTANGULAR
91.80469464, 27.40846125, 135.29080606, 91.27839290, 27.93986081, 136.49106477
3, 0.
*SHELL SECTION, ELSET=ELEM_1283, COMPOSITE, ORIENTATION=ORI_1283
1.26156485, 3, CFRP, 0.
** SOURCE_TET=5880
*ELSET, ELSET=ELEM_1284
1284
*ORIENTATION, NAME=ORI_1284, SYSTEM=RECTANGULAR
81.65079628, 44.76357545, 144.02842105, 80.96605909, 45.13207126, 145.20966862
3, 0.
*SHELL SECTION, ELSET=ELEM_1284, COMPOSITE, ORIENTATION=ORI_1284
1.26318192, 3, CFRP, 0.
** SOURCE_TET=2977
*ELSET, ELSET=ELEM_1285
1285
*ORIENTATION, NAME=ORI_1285, SYSTEM=RECTANGULAR
78.87524981, 54.24470575, 135.07023511, 78.28705260, 54.63008520, 136.29722603
3, 0.
*SHELL SECTION, ELSET=ELEM_1285, COMPOSITE, ORIENTATION=ORI_1285
1.26134288, 3, CFRP, 0.
** SOURCE_TET=3722
*ELSET, ELSET=ELEM_1286
1286
*ORIENTATION, NAME=ORI_1286, SYSTEM=RECTANGULAR
81.74825298, -49.80429839, 135.85613219, 81.81838572, -49.08000954, 137.06876860
3, 0.
*SHELL SECTION, ELSET=ELEM_1286, COMPOSITE, ORIENTATION=ORI_1286
1.26146233, 3, CFRP, 0.
** SOURCE_TET=7022
*ELSET, ELSET=ELEM_1287
1287
*ORIENTATION, NAME=ORI_1287, SYSTEM=RECTANGULAR
84.80321749, -40.44842816, 142.37817666, 84.71013095, -39.69973582, 143.57433496
3, 0.
*SHELL SECTION, ELSET=ELEM_1287, COMPOSITE, ORIENTATION=ORI_1287
1.26313007, 3, CFRP, 0.
** SOURCE_TET=6245
*ELSET, ELSET=ELEM_1288
1288
*ORIENTATION, NAME=ORI_1288, SYSTEM=RECTANGULAR
90.41306186, -30.76869123, 137.00678515, 90.26864350, -30.03030984, 138.20425593
3, 0.
*SHELL SECTION, ELSET=ELEM_1288, COMPOSITE, ORIENTATION=ORI_1288
1.26214957, 3, CFRP, 0.
** SOURCE_TET=1534
*ELSET, ELSET=ELEM_1289
1289
*ORIENTATION, NAME=ORI_1289, SYSTEM=RECTANGULAR
25.21450449, 17.16468193, 205.18800350, 23.93942872, 16.71575511, 205.60351103
3, 0.
*SHELL SECTION, ELSET=ELEM_1289, COMPOSITE, ORIENTATION=ORI_1289
1.42904723, 3, CFRP, 0.
** SOURCE_TET=928
*ELSET, ELSET=ELEM_1290
1290
*ORIENTATION, NAME=ORI_1290, SYSTEM=RECTANGULAR
23.32247201, 18.92195756, 205.34440372, 22.10233922, 18.33705260, 205.75569700
3, 0.
*SHELL SECTION, ELSET=ELEM_1290, COMPOSITE, ORIENTATION=ORI_1290
1.43030477, 3, CFRP, 0.
** SOURCE_TET=937
*ELSET, ELSET=ELEM_1291
1291
*ORIENTATION, NAME=ORI_1291, SYSTEM=RECTANGULAR
27.61427072, 11.70689307, 205.35839705, 26.27153615, 11.51314561, 205.75780386
3, 0.
*SHELL SECTION, ELSET=ELEM_1291, COMPOSITE, ORIENTATION=ORI_1291
1.43258250, 3, CFRP, 0.
** SOURCE_TET=781
*ELSET, ELSET=ELEM_1292
1292
*ORIENTATION, NAME=ORI_1292, SYSTEM=RECTANGULAR
29.21897856, 14.14232116, 204.54323189, 27.89487982, 13.90728022, 204.98085990
3, 0.
*SHELL SECTION, ELSET=ELEM_1292, COMPOSITE, ORIENTATION=ORI_1292
1.41775632, 3, CFRP, 0.
** SOURCE_TET=1541
*ELSET, ELSET=ELEM_1293
1293
*ORIENTATION, NAME=ORI_1293, SYSTEM=RECTANGULAR
27.84619074, 17.21025590, 204.43968485, 26.56152520, 16.81461996, 204.87912387
3, 0.
*SHELL SECTION, ELSET=ELEM_1293, COMPOSITE, ORIENTATION=ORI_1293
1.41577458, 3, CFRP, 0.
** SOURCE_TET=336
*ELSET, ELSET=ELEM_1294
1294
*ORIENTATION, NAME=ORI_1294, SYSTEM=RECTANGULAR
-11.51961736, -23.37215058, 206.52702963, -10.64192450, -22.31829960, 206.87207073
3, 0.
*SHELL SECTION, ELSET=ELEM_1294, COMPOSITE, ORIENTATION=ORI_1294
1.47896647, 3, CFRP, 0.
** SOURCE_TET=455
*ELSET, ELSET=ELEM_1295
1295
*ORIENTATION, NAME=ORI_1295, SYSTEM=RECTANGULAR
-10.90140635, -20.22591801, 207.30979939, -9.97237700, -19.20522878, 207.61817899
3, 0.
*SHELL SECTION, ELSET=ELEM_1295, COMPOSITE, ORIENTATION=ORI_1295
1.52503145, 3, CFRP, 0.
** SOURCE_TET=199
*ELSET, ELSET=ELEM_1296
1296
*ORIENTATION, NAME=ORI_1296, SYSTEM=RECTANGULAR
-12.08002217, -21.66708568, 206.85319849, -11.16214652, -20.64434509, 207.18712361
3, 0.
*SHELL SECTION, ELSET=ELEM_1296, COMPOSITE, ORIENTATION=ORI_1296
1.49082637, 3, CFRP, 0.
** SOURCE_TET=765
*ELSET, ELSET=ELEM_1297
1297
*ORIENTATION, NAME=ORI_1297, SYSTEM=RECTANGULAR
-8.82541780, -19.59755720, 207.64103430, -8.02906569, -18.46537269, 207.93083003
3, 0.
*SHELL SECTION, ELSET=ELEM_1297, COMPOSITE, ORIENTATION=ORI_1297
1.54397213, 3, CFRP, 0.
** SOURCE_TET=2046
*ELSET, ELSET=ELEM_1298
1298
*ORIENTATION, NAME=ORI_1298, SYSTEM=RECTANGULAR
-18.17320267, -24.20198050, 205.26928576, -17.11314247, -23.35929421, 205.67690345
3, 0.
*SHELL SECTION, ELSET=ELEM_1298, COMPOSITE, ORIENTATION=ORI_1298
1.43682313, 3, CFRP, 0.
** SOURCE_TET=7196
*ELSET, ELSET=ELEM_1299
1299
*ORIENTATION, NAME=ORI_1299, SYSTEM=RECTANGULAR
-15.70442756, -23.93673896, 205.77946869, -14.68628238, -23.03533020, 206.16785334
3, 0.
*SHELL SECTION, ELSET=ELEM_1299, COMPOSITE, ORIENTATION=ORI_1299
1.44846833, 3, CFRP, 0.
** SOURCE_TET=295
*ELSET, ELSET=ELEM_1300
1300
*ORIENTATION, NAME=ORI_1300, SYSTEM=RECTANGULAR
-14.53571340, -21.74137619, 206.50740411, -13.50766600, -20.83458228, 206.85502941
3, 0.
*SHELL SECTION, ELSET=ELEM_1300, COMPOSITE, ORIENTATION=ORI_1300
1.46788538, 3, CFRP, 0.
** SOURCE_TET=3562
*ELSET, ELSET=ELEM_1301
1301
*ORIENTATION, NAME=ORI_1301, SYSTEM=RECTANGULAR
-19.99801076, -27.27616541, 204.01826782, -18.96474662, -26.43021226, 204.48380891
3, 0.
*SHELL SECTION, ELSET=ELEM_1301, COMPOSITE, ORIENTATION=ORI_1301
1.40555072, 3, CFRP, 0.
** SOURCE_TET=7272
*ELSET, ELSET=ELEM_1302
1302
*ORIENTATION, NAME=ORI_1302, SYSTEM=RECTANGULAR
-23.50177584, -26.92178181, 203.31004644, -22.38457590, -26.19718048, 203.78629972
3, 0.
*SHELL SECTION, ELSET=ELEM_1302, COMPOSITE, ORIENTATION=ORI_1302
1.38760221, 3, CFRP, 0.
** SOURCE_TET=2737
*ELSET, ELSET=ELEM_1303
1303
*ORIENTATION, NAME=ORI_1303, SYSTEM=RECTANGULAR
-24.23078484, -23.38162252, 204.10051337, -23.05824398, -22.73710713, 204.55849574
3, 0.
*SHELL SECTION, ELSET=ELEM_1303, COMPOSITE, ORIENTATION=ORI_1303
1.40917158, 3, CFRP, 0.
** SOURCE_TET=1747
*ELSET, ELSET=ELEM_1304
1304
*ORIENTATION, NAME=ORI_1304, SYSTEM=RECTANGULAR
-13.82619153, -25.07518858, 205.77442246, -12.89902170, -24.08215014, 206.16714469
3, 0.
*SHELL SECTION, ELSET=ELEM_1304, COMPOSITE, ORIENTATION=ORI_1304
1.44803691, 3, CFRP, 0.
** SOURCE_TET=5931
*ELSET, ELSET=ELEM_1305
1305
*ORIENTATION, NAME=ORI_1305, SYSTEM=RECTANGULAR
49.95957543, 53.55797118, 177.45912367, 48.96202322, 53.26239090, 178.41699729
3, 0.
*SHELL SECTION, ELSET=ELEM_1305, COMPOSITE, ORIENTATION=ORI_1305
1.28483558, 3, CFRP, 0.
** SOURCE_TET=4721
*ELSET, ELSET=ELEM_1306
1306
*ORIENTATION, NAME=ORI_1306, SYSTEM=RECTANGULAR
48.80667832, 47.35625516, 182.82392513, 47.75832973, 47.04512355, 183.72067613
3, 0.
*SHELL SECTION, ELSET=ELEM_1306, COMPOSITE, ORIENTATION=ORI_1306
1.29404807, 3, CFRP, 0.
** SOURCE_TET=5430
*ELSET, ELSET=ELEM_1307
1307
*ORIENTATION, NAME=ORI_1307, SYSTEM=RECTANGULAR
43.21993067, 47.17876142, 186.51123636, 42.19929262, 46.73992013, 187.38628853
3, 0.
*SHELL SECTION, ELSET=ELEM_1307, COMPOSITE, ORIENTATION=ORI_1307
1.29952490, 3, CFRP, 0.
** SOURCE_TET=6341
*ELSET, ELSET=ELEM_1308
1308
*ORIENTATION, NAME=ORI_1308, SYSTEM=RECTANGULAR
37.65483751, 50.49271581, 187.38189633, 36.65494001, 49.95091191, 188.22252319
3, 0.
*SHELL SECTION, ELSET=ELEM_1308, COMPOSITE, ORIENTATION=ORI_1308
1.30090940, 3, CFRP, 0.
** SOURCE_TET=4957
*ELSET, ELSET=ELEM_1309
1309
*ORIENTATION, NAME=ORI_1309, SYSTEM=RECTANGULAR
58.16881046, 52.66203226, 171.11339603, 57.21598909, 52.51905727, 172.14862044
3, 0.
*SHELL SECTION, ELSET=ELEM_1309, COMPOSITE, ORIENTATION=ORI_1309
1.27959633, 3, CFRP, 0.
** SOURCE_TET=5318
*ELSET, ELSET=ELEM_1310
1310
*ORIENTATION, NAME=ORI_1310, SYSTEM=RECTANGULAR
60.41138604, 58.89049248, 162.47808441, 59.51473008, 58.80692029, 163.56850808
3, 0.
*SHELL SECTION, ELSET=ELEM_1310, COMPOSITE, ORIENTATION=ORI_1310
1.27213335, 3, CFRP, 0.
** SOURCE_TET=4038
*ELSET, ELSET=ELEM_1311
1311
*ORIENTATION, NAME=ORI_1311, SYSTEM=RECTANGULAR
53.74588224, 65.48985798, 161.98993315, 52.87175355, 65.34772823, 163.09252018
3, 0.
*SHELL SECTION, ELSET=ELEM_1311, COMPOSITE, ORIENTATION=ORI_1311
1.27185404, 3, CFRP, 0.
** SOURCE_TET=5222
*ELSET, ELSET=ELEM_1312
1312
*ORIENTATION, NAME=ORI_1312, SYSTEM=RECTANGULAR
63.87525955, 44.73779145, 171.71315212, 62.89274669, 44.71623683, 172.73011027
3, 0.
*SHELL SECTION, ELSET=ELEM_1312, COMPOSITE, ORIENTATION=ORI_1312
1.28022492, 3, CFRP, 0.
** SOURCE_TET=6128
*ELSET, ELSET=ELEM_1313
1313
*ORIENTATION, NAME=ORI_1313, SYSTEM=RECTANGULAR
60.94831481, 38.51807543, 178.66444215, 59.90678151, 38.46484480, 179.61962532
3, 0.
*SHELL SECTION, ELSET=ELEM_1313, COMPOSITE, ORIENTATION=ORI_1313
1.28622389, 3, CFRP, 0.
** SOURCE_TET=6335
*ELSET, ELSET=ELEM_1314
1314
*ORIENTATION, NAME=ORI_1314, SYSTEM=RECTANGULAR
54.09191298, 40.24847628, 183.43920127, 53.02200502, 40.04411215, 184.34116149
3, 0.
*SHELL SECTION, ELSET=ELEM_1314, COMPOSITE, ORIENTATION=ORI_1314
1.29478931, 3, CFRP, 0.
** SOURCE_TET=4244
*ELSET, ELSET=ELEM_1315
1315
*ORIENTATION, NAME=ORI_1315, SYSTEM=RECTANGULAR
74.48211273, 48.12028604, 154.66586808, 73.65625046, 48.32286116, 155.79587464
3, 0.
*SHELL SECTION, ELSET=ELEM_1315, COMPOSITE, ORIENTATION=ORI_1315
1.26701915, 3, CFRP, 0.
** SOURCE_TET=5994
*ELSET, ELSET=ELEM_1316
1316
*ORIENTATION, NAME=ORI_1316, SYSTEM=RECTANGULAR
72.09203053, 41.90910242, 163.97241016, 71.19343518, 42.07337159, 165.05201288
3, 0.
*SHELL SECTION, ELSET=ELEM_1316, COMPOSITE, ORIENTATION=ORI_1316
1.27278972, 3, CFRP, 0.
** SOURCE_TET=6417
*ELSET, ELSET=ELEM_1317
1317
*ORIENTATION, NAME=ORI_1317, SYSTEM=RECTANGULAR
68.53045449, 57.16226925, 153.76721494, 67.69354323, 57.29430942, 154.89953334
3, 0.
*SHELL SECTION, ELSET=ELEM_1317, COMPOSITE, ORIENTATION=ORI_1317
1.26670098, 3, CFRP, 0.
** SOURCE_TET=2797
*ELSET, ELSET=ELEM_1318
1318
*ORIENTATION, NAME=ORI_1318, SYSTEM=RECTANGULAR
34.03893733, -10.56259017, 203.34958314, 32.92975603, -9.83781648, 203.84397160
3, 0.
*SHELL SECTION, ELSET=ELEM_1318, COMPOSITE, ORIENTATION=ORI_1318
1.39874530, 3, CFRP, 0.
** SOURCE_TET=3103
*ELSET, ELSET=ELEM_1319
1319
*ORIENTATION, NAME=ORI_1319, SYSTEM=RECTANGULAR
35.23769047, -14.10088349, 202.39324039, 34.21582703, -13.26063493, 202.89301782
3, 0.
*SHELL SECTION, ELSET=ELEM_1319, COMPOSITE, ORIENTATION=ORI_1319
1.38073599, 3, CFRP, 0.
** SOURCE_TET=7290
*ELSET, ELSET=ELEM_1320
1320
*ORIENTATION, NAME=ORI_1320, SYSTEM=RECTANGULAR
28.45326386, -9.60304896, 205.34126174, 27.31788873, -8.86518299, 205.74927781
3, 0.
*SHELL SECTION, ELSET=ELEM_1320, COMPOSITE, ORIENTATION=ORI_1320
1.43897259, 3, CFRP, 0.
** SOURCE_TET=4084
*ELSET, ELSET=ELEM_1321
1321
*ORIENTATION, NAME=ORI_1321, SYSTEM=RECTANGULAR
31.05117426, -9.10504103, 204.57519285, 29.90922109, -8.39376701, 205.01111970
3, 0.
*SHELL SECTION, ELSET=ELEM_1321, COMPOSITE, ORIENTATION=ORI_1321
1.41588485, 3, CFRP, 0.
** SOURCE_TET=3275
*ELSET, ELSET=ELEM_1322
1322
*ORIENTATION, NAME=ORI_1322, SYSTEM=RECTANGULAR
-44.35911746, -16.46605395, 197.91187311, -43.10199312, -16.44480196, 198.55931944
3, 0.
*SHELL SECTION, ELSET=ELEM_1322, COMPOSITE, ORIENTATION=ORI_1322
1.34358847, 3, CFRP, 0.
** SOURCE_TET=4728
*ELSET, ELSET=ELEM_1323
1323
*ORIENTATION, NAME=ORI_1323, SYSTEM=RECTANGULAR
-47.63046192, -13.64370373, 196.67413469, -46.37530583, -13.70505754, 197.32284026
3, 0.
*SHELL SECTION, ELSET=ELEM_1323, COMPOSITE, ORIENTATION=ORI_1323
1.33782387, 3, CFRP, 0.
** SOURCE_TET=3496
*ELSET, ELSET=ELEM_1324
1324
*ORIENTATION, NAME=ORI_1324, SYSTEM=RECTANGULAR
-44.43328825, -5.06732365, 199.25731100, -43.18536614, -5.35156467, 199.85889013
3, 0.
*SHELL SECTION, ELSET=ELEM_1324, COMPOSITE, ORIENTATION=ORI_1324
1.34741127, 3, CFRP, 0.
** SOURCE_TET=4628
*ELSET, ELSET=ELEM_1325
1325
*ORIENTATION, NAME=ORI_1325, SYSTEM=RECTANGULAR
-47.90304214, -8.08736315, 197.26028881, -46.65560313, -8.25438649, 197.90526877
3, 0.
*SHELL SECTION, ELSET=ELEM_1325, COMPOSITE, ORIENTATION=ORI_1325
1.34036100, 3, CFRP, 0.
** SOURCE_TET=2364
*ELSET, ELSET=ELEM_1326
1326
*ORIENTATION, NAME=ORI_1326, SYSTEM=RECTANGULAR
8.57334953, 34.60965997, 203.30161568, 7.88451403, 33.47280961, 203.78439607
3, 0.
*SHELL SECTION, ELSET=ELEM_1326, COMPOSITE, ORIENTATION=ORI_1326
1.39261377, 3, CFRP, 0.
** SOURCE_TET=2245
*ELSET, ELSET=ELEM_1327
1327
*ORIENTATION, NAME=ORI_1327, SYSTEM=RECTANGULAR
12.72347416, 27.73361252, 205.16614353, 11.87467389, 26.68554059, 205.59168243
3, 0.
*SHELL SECTION, ELSET=ELEM_1327, COMPOSITE, ORIENTATION=ORI_1327
1.42877328, 3, CFRP, 0.
** SOURCE_TET=2785
*ELSET, ELSET=ELEM_1328
1328
*ORIENTATION, NAME=ORI_1328, SYSTEM=RECTANGULAR
8.18427191, 30.64597215, 204.76553995, 7.51735061, 29.47715971, 205.20038873
3, 0.
*SHELL SECTION, ELSET=ELEM_1328, COMPOSITE, ORIENTATION=ORI_1328
1.42160118, 3, CFRP, 0.
** SOURCE_TET=2142
*ELSET, ELSET=ELEM_1329
1329
*ORIENTATION, NAME=ORI_1329, SYSTEM=RECTANGULAR
10.18344755, 28.59453604, 205.22784783, 9.44631295, 27.46253802, 205.64643243
3, 0.
*SHELL SECTION, ELSET=ELEM_1329, COMPOSITE, ORIENTATION=ORI_1329
1.43001330, 3, CFRP, 0.
** SOURCE_TET=2665
*ELSET, ELSET=ELEM_1330
1330
*ORIENTATION, NAME=ORI_1330, SYSTEM=RECTANGULAR
5.26981712, 36.64805851, 202.81357958, 4.74614778, 35.43229144, 203.31125502
3, 0.
*SHELL SECTION, ELSET=ELEM_1330, COMPOSITE, ORIENTATION=ORI_1330
1.38781846, 3, CFRP, 0.
** SOURCE_TET=3160
*ELSET, ELSET=ELEM_1331
1331
*ORIENTATION, NAME=ORI_1331, SYSTEM=RECTANGULAR
4.42583203, 40.59252287, 201.19438510, 3.89516295, 39.40394231, 201.74725633
3, 0.
*SHELL SECTION, ELSET=ELEM_1331, COMPOSITE, ORIENTATION=ORI_1331
1.36518764, 3, CFRP, 0.
** SOURCE_TET=4960
*ELSET, ELSET=ELEM_1332
1332
*ORIENTATION, NAME=ORI_1332, SYSTEM=RECTANGULAR
-36.34145011, 75.34477439, 163.88086259, -36.55371628, 74.46969221, 164.97135526
3, 0.
*SHELL SECTION, ELSET=ELEM_1332, COMPOSITE, ORIENTATION=ORI_1332
1.27331054, 3, CFRP, 0.
** SOURCE_TET=6148
*ELSET, ELSET=ELEM_1333
1333
*ORIENTATION, NAME=ORI_1333, SYSTEM=RECTANGULAR
-32.72568465, 71.77029269, 170.89072895, -32.89226826, 70.82592483, 171.93016112
3, 0.
*SHELL SECTION, ELSET=ELEM_1333, COMPOSITE, ORIENTATION=ORI_1333
1.27748716, 3, CFRP, 0.
** SOURCE_TET=3954
*ELSET, ELSET=ELEM_1334
1334
*ORIENTATION, NAME=ORI_1334, SYSTEM=RECTANGULAR
-36.69514908, 65.33052310, 175.71298394, -36.73553595, 64.30377215, 176.68465847
3, 0.
*SHELL SECTION, ELSET=ELEM_1334, COMPOSITE, ORIENTATION=ORI_1334
1.28377676, 3, CFRP, 0.
** SOURCE_TET=3838
*ELSET, ELSET=ELEM_1335
1335
*ORIENTATION, NAME=ORI_1335, SYSTEM=RECTANGULAR
-47.35937360, 79.58932430, 145.46681703, -47.68195570, 78.87396859, 146.64334030
3, 0.
*SHELL SECTION, ELSET=ELEM_1335, COMPOSITE, ORIENTATION=ORI_1335
1.26436019, 3, CFRP, 0.
** SOURCE_TET=5495
*ELSET, ELSET=ELEM_1336
1336
*ORIENTATION, NAME=ORI_1336, SYSTEM=RECTANGULAR
-31.32362034, 81.35774075, 157.76673335, -31.67584241, 80.55701489, 158.87793888
3, 0.
*SHELL SECTION, ELSET=ELEM_1336, COMPOSITE, ORIENTATION=ORI_1336
1.26935363, 3, CFRP, 0.
** SOURCE_TET=6382
*ELSET, ELSET=ELEM_1337
1337
*ORIENTATION, NAME=ORI_1337, SYSTEM=RECTANGULAR
-36.20332374, 84.46791274, 147.63499349, -36.58876029, 83.77890186, 148.80832323
3, 0.
*SHELL SECTION, ELSET=ELEM_1337, COMPOSITE, ORIENTATION=ORI_1337
1.26487970, 3, CFRP, 0.
** SOURCE_TET=2311
*ELSET, ELSET=ELEM_1338
1338
*ORIENTATION, NAME=ORI_1338, SYSTEM=RECTANGULAR
-15.43171993, -2.79897026, 208.73883234, -14.03296566, -2.81755175, 208.94653703
3, 0.
*SHELL SECTION, ELSET=ELEM_1338, COMPOSITE, ORIENTATION=ORI_1338
1.59133017, 3, CFRP, 0.
** SOURCE_TET=1993
*ELSET, ELSET=ELEM_1339
1339
*ORIENTATION, NAME=ORI_1339, SYSTEM=RECTANGULAR
-16.78731225, 0.76218020, 208.56944375, -15.43729406, 0.40098577, 208.78621427
3, 0.
*SHELL SECTION, ELSET=ELEM_1339, COMPOSITE, ORIENTATION=ORI_1339
1.59091985, 3, CFRP, 0.
** SOURCE_TET=1394
*ELSET, ELSET=ELEM_1340
1340
*ORIENTATION, NAME=ORI_1340, SYSTEM=RECTANGULAR
-16.96947741, -1.20220428, 208.52989033, -15.59286765, -1.43903340, 208.75092771
3, 0.
*SHELL SECTION, ELSET=ELEM_1340, COMPOSITE, ORIENTATION=ORI_1340
1.59080446, 3, CFRP, 0.
** SOURCE_TET=6894
*ELSET, ELSET=ELEM_1341
1341
*ORIENTATION, NAME=ORI_1341, SYSTEM=RECTANGULAR
-51.38807591, 81.02836968, 135.41293109, -51.74334219, 80.37667070, 136.61670612
3, 0.
*SHELL SECTION, ELSET=ELEM_1341, COMPOSITE, ORIENTATION=ORI_1341
1.26140213, 3, CFRP, 0.
** SOURCE_TET=4938
*ELSET, ELSET=ELEM_1342
1342
*ORIENTATION, NAME=ORI_1342, SYSTEM=RECTANGULAR
-61.03797046, 74.98757121, 132.33649606, -61.36927960, 74.34708699, 133.55305440
3, 0.
*SHELL SECTION, ELSET=ELEM_1342, COMPOSITE, ORIENTATION=ORI_1342
1.26097822, 3, CFRP, 0.
** SOURCE_TET=6153
*ELSET, ELSET=ELEM_1343
1343
*ORIENTATION, NAME=ORI_1343, SYSTEM=RECTANGULAR
-68.07470561, 66.60609891, 138.08959476, -68.25748039, 65.88581867, 139.29283611
3, 0.
*SHELL SECTION, ELSET=ELEM_1343, COMPOSITE, ORIENTATION=ORI_1343
1.26196074, 3, CFRP, 0.
** SOURCE_TET=6029
*ELSET, ELSET=ELEM_1344
1344
*ORIENTATION, NAME=ORI_1344, SYSTEM=RECTANGULAR
-66.38440497, 64.15076709, 146.94476290, -66.51748827, 63.38804146, 148.12820637
3, 0.
*SHELL SECTION, ELSET=ELEM_1344, COMPOSITE, ORIENTATION=ORI_1344
1.26484144, 3, CFRP, 0.
** SOURCE_TET=5413
*ELSET, ELSET=ELEM_1345
1345
*ORIENTATION, NAME=ORI_1345, SYSTEM=RECTANGULAR
69.45176451, -43.13298454, 166.67497580, 69.12594336, -42.24478638, 167.72613925
3, 0.
*SHELL SECTION, ELSET=ELEM_1345, COMPOSITE, ORIENTATION=ORI_1345
1.27507186, 3, CFRP, 0.
** SOURCE_TET=6253
*ELSET, ELSET=ELEM_1346
1346
*ORIENTATION, NAME=ORI_1346, SYSTEM=RECTANGULAR
71.15704306, -35.27144266, 170.15373086, 70.70230887, -34.43632934, 171.20053674
3, 0.
*SHELL SECTION, ELSET=ELEM_1346, COMPOSITE, ORIENTATION=ORI_1346
1.27893507, 3, CFRP, 0.
** SOURCE_TET=4908
*ELSET, ELSET=ELEM_1347
1347
*ORIENTATION, NAME=ORI_1347, SYSTEM=RECTANGULAR
62.14243438, -31.41970907, 181.27694776, 61.52848965, -30.54986771, 182.20777958
3, 0.
*SHELL SECTION, ELSET=ELEM_1347, COMPOSITE, ORIENTATION=ORI_1347
1.29241240, 3, CFRP, 0.
** SOURCE_TET=6752
*ELSET, ELSET=ELEM_1348
1348
*ORIENTATION, NAME=ORI_1348, SYSTEM=RECTANGULAR
67.43437507, -30.79999517, 176.65150162, 66.84423054, -29.94681768, 177.61265593
3, 0.
*SHELL SECTION, ELSET=ELEM_1348, COMPOSITE, ORIENTATION=ORI_1348
1.28415275, 3, CFRP, 0.
** SOURCE_TET=5261
*ELSET, ELSET=ELEM_1349
1349
*ORIENTATION, NAME=ORI_1349, SYSTEM=RECTANGULAR
62.71495352, -60.55889900, 157.82231659, 62.69599535, -59.68968682, 158.93771372
3, 0.
*SHELL SECTION, ELSET=ELEM_1349, COMPOSITE, ORIENTATION=ORI_1349
1.26913548, 3, CFRP, 0.
** SOURCE_TET=5773
*ELSET, ELSET=ELEM_1350
1350
*ORIENTATION, NAME=ORI_1350, SYSTEM=RECTANGULAR
70.90677292, -55.26155844, 152.38964403, 70.85448776, -54.43527060, 153.53616689
3, 0.
*SHELL SECTION, ELSET=ELEM_1350, COMPOSITE, ORIENTATION=ORI_1350
1.26635873, 3, CFRP, 0.
** SOURCE_TET=6104
*ELSET, ELSET=ELEM_1351
1351
*ORIENTATION, NAME=ORI_1351, SYSTEM=RECTANGULAR
74.19994265, -46.46770551, 157.10798066, 74.01853795, -45.62352557, 158.22800412
3, 0.
*SHELL SECTION, ELSET=ELEM_1351, COMPOSITE, ORIENTATION=ORI_1351
1.26805294, 3, CFRP, 0.
** SOURCE_TET=5361
*ELSET, ELSET=ELEM_1352
1352
*ORIENTATION, NAME=ORI_1352, SYSTEM=RECTANGULAR
56.88903775, -68.84416218, 153.51761369, 57.00270849, -68.02500928, 154.66481354
3, 0.
*SHELL SECTION, ELSET=ELEM_1352, COMPOSITE, ORIENTATION=ORI_1352
1.26747942, 3, CFRP, 0.
** SOURCE_TET=4575
*ELSET, ELSET=ELEM_1353
1353
*ORIENTATION, NAME=ORI_1353, SYSTEM=RECTANGULAR
45.16848534, -67.58460531, 167.40811780, 45.22756757, -66.64542329, 168.46379125
3, 0.
*SHELL SECTION, ELSET=ELEM_1353, COMPOSITE, ORIENTATION=ORI_1353
1.27476597, 3, CFRP, 0.
** SOURCE_TET=4293
*ELSET, ELSET=ELEM_1354
1354
*ORIENTATION, NAME=ORI_1354, SYSTEM=RECTANGULAR
47.72157520, -72.25385014, 158.84255890, 47.86985066, -71.39477282, 159.95611202
3, 0.
*SHELL SECTION, ELSET=ELEM_1354, COMPOSITE, ORIENTATION=ORI_1354
1.27040112, 3, CFRP, 0.
** SOURCE_TET=3272
*ELSET, ELSET=ELEM_1355
1355
*ORIENTATION, NAME=ORI_1355, SYSTEM=RECTANGULAR
-15.89070054, -41.78650628, 199.26115261, -15.09125233, -40.78054883, 199.85185741
3, 0.
*SHELL SECTION, ELSET=ELEM_1355, COMPOSITE, ORIENTATION=ORI_1355
1.35254300, 3, CFRP, 0.
** SOURCE_TET=4475
*ELSET, ELSET=ELEM_1356
1356
*ORIENTATION, NAME=ORI_1356, SYSTEM=RECTANGULAR
-4.83792550, -46.79643799, 198.04298403, -4.34081753, -45.64944599, 198.70426537
3, 0.
*SHELL SECTION, ELSET=ELEM_1356, COMPOSITE, ORIENTATION=ORI_1356
1.34012723, 3, CFRP, 0.
** SOURCE_TET=3139
*ELSET, ELSET=ELEM_1357
1357
*ORIENTATION, NAME=ORI_1357, SYSTEM=RECTANGULAR
-11.76776580, -40.11735998, 200.67359141, -11.03533726, -39.05451317, 201.25143661
3, 0.
*SHELL SECTION, ELSET=ELEM_1357, COMPOSITE, ORIENTATION=ORI_1357
1.36167717, 3, CFRP, 0.
** SOURCE_TET=5046
*ELSET, ELSET=ELEM_1358
1358
*ORIENTATION, NAME=ORI_1358, SYSTEM=RECTANGULAR
-7.60899319, -42.63949425, 200.01276344, -7.01803517, -41.49558669, 200.59777977
3, 0.
*SHELL SECTION, ELSET=ELEM_1358, COMPOSITE, ORIENTATION=ORI_1358
1.35877156, 3, CFRP, 0.
** SOURCE_TET=2825
*ELSET, ELSET=ELEM_1359
1359
*ORIENTATION, NAME=ORI_1359, SYSTEM=RECTANGULAR
9.48131411, -42.67196459, 199.75684931, 9.55884918, -41.38401795, 200.33579817
3, 0.
*SHELL SECTION, ELSET=ELEM_1359, COMPOSITE, ORIENTATION=ORI_1359
1.35875225, 3, CFRP, 0.
** SOURCE_TET=4012
*ELSET, ELSET=ELEM_1360
1360
*ORIENTATION, NAME=ORI_1360, SYSTEM=RECTANGULAR
13.92166322, -43.54132506, 198.80971482, 13.94216336, -42.26031318, 199.40853725
3, 0.
*SHELL SECTION, ELSET=ELEM_1360, COMPOSITE, ORIENTATION=ORI_1360
1.34429014, 3, CFRP, 0.
** SOURCE_TET=3089
*ELSET, ELSET=ELEM_1361
1361
*ORIENTATION, NAME=ORI_1361, SYSTEM=RECTANGULAR
8.26259530, -38.35540898, 201.79872105, 8.32706326, -37.05188734, 202.34340004
3, 0.
*SHELL SECTION, ELSET=ELEM_1361, COMPOSITE, ORIENTATION=ORI_1361
1.37423110, 3, CFRP, 0.
** SOURCE_TET=3966
*ELSET, ELSET=ELEM_1362
1362
*ORIENTATION, NAME=ORI_1362, SYSTEM=RECTANGULAR
11.63418715, -34.38907422, 203.07126294, 11.56940031, -33.06446414, 203.56239510
3, 0.
*SHELL SECTION, ELSET=ELEM_1362, COMPOSITE, ORIENTATION=ORI_1362
1.38589311, 3, CFRP, 0.
** SOURCE_TET=3874
*ELSET, ELSET=ELEM_1363
1363
*ORIENTATION, NAME=ORI_1363, SYSTEM=RECTANGULAR
-43.88410823, -22.22974412, 196.88101756, -42.64598281, -22.07795472, 197.54735487
3, 0.
*SHELL SECTION, ELSET=ELEM_1363, COMPOSITE, ORIENTATION=ORI_1363
1.33293819, 3, CFRP, 0.
** SOURCE_TET=4775
*ELSET, ELSET=ELEM_1364
1364
*ORIENTATION, NAME=ORI_1364, SYSTEM=RECTANGULAR
-39.06920241, -23.80463997, 198.78615919, -37.83044643, -23.51007075, 199.40155548
3, 0.
*SHELL SECTION, ELSET=ELEM_1364, COMPOSITE, ORIENTATION=ORI_1364
1.34731936, 3, CFRP, 0.
** SOURCE_TET=2570
*ELSET, ELSET=ELEM_1365
1365
*ORIENTATION, NAME=ORI_1365, SYSTEM=RECTANGULAR
-10.50988133, -16.96527915, 207.97448635, -9.53152961, -15.97878128, 208.23839900
3, 0.
*SHELL SECTION, ELSET=ELEM_1365, COMPOSITE, ORIENTATION=ORI_1365
1.56557262, 3, CFRP, 0.
** SOURCE_TET=2124
*ELSET, ELSET=ELEM_1366
1366
*ORIENTATION, NAME=ORI_1366, SYSTEM=RECTANGULAR
-8.62765087, -17.58607168, 208.05145341, -7.72608447, -16.52753187, 208.30966168
3, 0.
*SHELL SECTION, ELSET=ELEM_1366, COMPOSITE, ORIENTATION=ORI_1366
1.57180667, 3, CFRP, 0.
** SOURCE_TET=705
*ELSET, ELSET=ELEM_1367
1367
*ORIENTATION, NAME=ORI_1367, SYSTEM=RECTANGULAR
-7.02444060, -16.16848657, 208.41436155, -6.24672487, -15.01063778, 208.64790901
3, 0.
*SHELL SECTION, ELSET=ELEM_1367, COMPOSITE, ORIENTATION=ORI_1367
1.58947814, 3, CFRP, 0.
** SOURCE_TET=6660
*ELSET, ELSET=ELEM_1368
1368
*ORIENTATION, NAME=ORI_1368, SYSTEM=RECTANGULAR
37.16708747, 85.83422527, 143.37389176, 36.41530406, 85.69737437, 144.56388905
3, 0.
*SHELL SECTION, ELSET=ELEM_1368, COMPOSITE, ORIENTATION=ORI_1368
1.26389825, 3, CFRP, 0.
** SOURCE_TET=6899
*ELSET, ELSET=ELEM_1369
1369
*ORIENTATION, NAME=ORI_1369, SYSTEM=RECTANGULAR
28.96189064, 90.43208165, 139.23084959, 28.22624635, 90.26400335, 140.42691697
3, 0.
*SHELL SECTION, ELSET=ELEM_1369, COMPOSITE, ORIENTATION=ORI_1369
1.26303828, 3, CFRP, 0.
** SOURCE_TET=6875
*ELSET, ELSET=ELEM_1370
1370
*ORIENTATION, NAME=ORI_1370, SYSTEM=RECTANGULAR
36.12001452, 81.71126848, 153.85147525, 35.33097406, 81.44564115, 154.99465383
3, 0.
*SHELL SECTION, ELSET=ELEM_1370, COMPOSITE, ORIENTATION=ORI_1370
1.26675308, 3, CFRP, 0.
** SOURCE_TET=4778
*ELSET, ELSET=ELEM_1371
1371
*ORIENTATION, NAME=ORI_1371, SYSTEM=RECTANGULAR
-16.54581689, 79.78536874, 167.23033017, -16.92337798, 78.91723748, 168.28094700
3, 0.
*SHELL SECTION, ELSET=ELEM_1371, COMPOSITE, ORIENTATION=ORI_1371
1.27638793, 3, CFRP, 0.
** SOURCE_TET=5487
*ELSET, ELSET=ELEM_1372
1372
*ORIENTATION, NAME=ORI_1372, SYSTEM=RECTANGULAR
-21.88842397, 83.34866936, 159.76575906, -22.29742568, 82.56740950, 160.87135873
3, 0.
*SHELL SECTION, ELSET=ELEM_1372, COMPOSITE, ORIENTATION=ORI_1372
1.27017665, 3, CFRP, 0.
** SOURCE_TET=5894
*ELSET, ELSET=ELEM_1373
1373
*ORIENTATION, NAME=ORI_1373, SYSTEM=RECTANGULAR
-15.60148300, 87.94826642, 153.91323867, -16.12999311, 87.28829304, 155.04686656
3, 0.
*SHELL SECTION, ELSET=ELEM_1373, COMPOSITE, ORIENTATION=ORI_1373
1.26699662, 3, CFRP, 0.
** SOURCE_TET=727
*ELSET, ELSET=ELEM_1374
1374
*ORIENTATION, NAME=ORI_1374, SYSTEM=RECTANGULAR
16.97758642, 5.62280176, 208.37275203, 15.58711504, 5.52367438, 208.61100212
3, 0.
*SHELL SECTION, ELSET=ELEM_1374, COMPOSITE, ORIENTATION=ORI_1374
1.59022748, 3, CFRP, 0.
** SOURCE_TET=3188
*ELSET, ELSET=ELEM_1375
1375
*ORIENTATION, NAME=ORI_1375, SYSTEM=RECTANGULAR
15.14802185, 4.30538131, 208.73867354, 13.74966940, 4.25357560, 208.94343334
3, 0.
*SHELL SECTION, ELSET=ELEM_1375, COMPOSITE, ORIENTATION=ORI_1375
1.59160614, 3, CFRP, 0.
** SOURCE_TET=81
*ELSET, ELSET=ELEM_1376
1376
*ORIENTATION, NAME=ORI_1376, SYSTEM=RECTANGULAR
-15.16553582, 16.92479505, 207.35628819, -14.48054213, 15.72683851, 207.66561610
3, 0.
*SHELL SECTION, ELSET=ELEM_1376, COMPOSITE, ORIENTATION=ORI_1376
1.51552534, 3, CFRP, 0.
** SOURCE_TET=804
*ELSET, ELSET=ELEM_1377
1377
*ORIENTATION, NAME=ORI_1377, SYSTEM=RECTANGULAR
-10.89443865, 16.74280251, 207.96565004, -10.46711317, 15.42129093, 208.23210845
3, 0.
*SHELL SECTION, ELSET=ELEM_1377, COMPOSITE, ORIENTATION=ORI_1377
1.55732083, 3, CFRP, 0.
** SOURCE_TET=165
*ELSET, ELSET=ELEM_1378
1378
*ORIENTATION, NAME=ORI_1378, SYSTEM=RECTANGULAR
-13.00205581, 15.73460657, 207.87604463, -12.38367621, 14.49119467, 208.14350215
3, 0.
*SHELL SECTION, ELSET=ELEM_1378, COMPOSITE, ORIENTATION=ORI_1378
1.55720246, 3, CFRP, 0.
** SOURCE_TET=749
*ELSET, ELSET=ELEM_1379
1379
*ORIENTATION, NAME=ORI_1379, SYSTEM=RECTANGULAR
28.62287859, 9.36330111, 205.32973592, 27.27114013, 9.25768623, 205.73179142
3, 0.
*SHELL SECTION, ELSET=ELEM_1379, COMPOSITE, ORIENTATION=ORI_1379
1.43180156, 3, CFRP, 0.
** SOURCE_TET=187
*ELSET, ELSET=ELEM_1380
1380
*ORIENTATION, NAME=ORI_1380, SYSTEM=RECTANGULAR
27.70352518, 7.12759928, 205.79747791, 26.34098408, 7.11427839, 206.17603346
3, 0.
*SHELL SECTION, ELSET=ELEM_1380, COMPOSITE, ORIENTATION=ORI_1380
1.45049107, 3, CFRP, 0.
** SOURCE_TET=80
*ELSET, ELSET=ELEM_1381
1381
*ORIENTATION, NAME=ORI_1381, SYSTEM=RECTANGULAR
25.87486153, 6.74180778, 206.32980998, 24.50855030, 6.76844603, 206.69379354
3, 0.
*SHELL SECTION, ELSET=ELEM_1381, COMPOSITE, ORIENTATION=ORI_1381
1.47028136, 3, CFRP, 0.
** SOURCE_TET=1216
*ELSET, ELSET=ELEM_1382
1382
*ORIENTATION, NAME=ORI_1382, SYSTEM=RECTANGULAR
24.02253052, 8.10915962, 206.71125532, 22.65387078, 8.00239650, 207.05092006
3, 0.
*SHELL SECTION, ELSET=ELEM_1382, COMPOSITE, ORIENTATION=ORI_1382
1.48852801, 3, CFRP, 0.
** SOURCE_TET=1448
*ELSET, ELSET=ELEM_1383
1383
*ORIENTATION, NAME=ORI_1383, SYSTEM=RECTANGULAR
32.04519807, 13.66617754, 203.68549896, 30.72628061, 13.46765596, 204.15565416
3, 0.
*SHELL SECTION, ELSET=ELEM_1383, COMPOSITE, ORIENTATION=ORI_1383
1.39606142, 3, CFRP, 0.
** SOURCE_TET=1225
*ELSET, ELSET=ELEM_1384
1384
*ORIENTATION, NAME=ORI_1384, SYSTEM=RECTANGULAR
33.12713832, 10.90043537, 203.67844197, 31.79358211, 10.84173134, 204.14554116
3, 0.
*SHELL SECTION, ELSET=ELEM_1384, COMPOSITE, ORIENTATION=ORI_1384
1.39707041, 3, CFRP, 0.
** SOURCE_TET=475
*ELSET, ELSET=ELEM_1385
1385
*ORIENTATION, NAME=ORI_1385, SYSTEM=RECTANGULAR
31.29780315, 9.04367052, 204.51430104, 29.95463987, 9.01346253, 204.95588896
3, 0.
*SHELL SECTION, ELSET=ELEM_1385, COMPOSITE, ORIENTATION=ORI_1385
1.40846479, 3, CFRP, 0.
** SOURCE_TET=2353
*ELSET, ELSET=ELEM_1386
1386
*ORIENTATION, NAME=ORI_1386, SYSTEM=RECTANGULAR
33.92985123, 16.47741377, 202.54487156, 32.63199206, 16.24497508, 203.05627536
3, 0.
*SHELL SECTION, ELSET=ELEM_1386, COMPOSITE, ORIENTATION=ORI_1386
1.38334799, 3, CFRP, 0.
** SOURCE_TET=2065
*ELSET, ELSET=ELEM_1387
1387
*ORIENTATION, NAME=ORI_1387, SYSTEM=RECTANGULAR
32.69161004, 19.47278978, 202.42726456, 31.41074703, 19.15555308, 202.93594012
3, 0.
*SHELL SECTION, ELSET=ELEM_1387, COMPOSITE, ORIENTATION=ORI_1387
1.38212502, 3, CFRP, 0.
** SOURCE_TET=1710
*ELSET, ELSET=ELEM_1388
1388
*ORIENTATION, NAME=ORI_1388, SYSTEM=RECTANGULAR
29.42954861, 19.72682105, 203.45964820, 28.17435659, 19.28336759, 203.93697620
3, 0.
*SHELL SECTION, ELSET=ELEM_1388, COMPOSITE, ORIENTATION=ORI_1388
1.39431393, 3, CFRP, 0.
** SOURCE_TET=2622
*ELSET, ELSET=ELEM_1389
1389
*ORIENTATION, NAME=ORI_1389, SYSTEM=RECTANGULAR
44.22672817, 13.46299618, 198.50917428, 42.96571533, 13.49401033, 199.14861525
3, 0.
*SHELL SECTION, ELSET=ELEM_1389, COMPOSITE, ORIENTATION=ORI_1389
1.34876704, 3, CFRP, 0.
** SOURCE_TET=2492
*ELSET, ELSET=ELEM_1390
1390
*ORIENTATION, NAME=ORI_1390, SYSTEM=RECTANGULAR
40.39767555, 7.57237308, 201.10311132, 39.10801407, 7.73466023, 201.66027929
3, 0.
*SHELL SECTION, ELSET=ELEM_1390, COMPOSITE, ORIENTATION=ORI_1390
1.36742258, 3, CFRP, 0.
** SOURCE_TET=4550
*ELSET, ELSET=ELEM_1391
1391
*ORIENTATION, NAME=ORI_1391, SYSTEM=RECTANGULAR
41.50286287, 10.85224890, 200.24125295, 40.22061939, 10.90653329, 200.83531091
3, 0.
*SHELL SECTION, ELSET=ELEM_1391, COMPOSITE, ORIENTATION=ORI_1391
1.35878301, 3, CFRP, 0.
** SOURCE_TET=3950
*ELSET, ELSET=ELEM_1392
1392
*ORIENTATION, NAME=ORI_1392, SYSTEM=RECTANGULAR
50.76019557, 22.46044203, 192.94735507, 49.55098754, 22.41278053, 193.67916400
3, 0.
*SHELL SECTION, ELSET=ELEM_1392, COMPOSITE, ORIENTATION=ORI_1392
1.31565857, 3, CFRP, 0.
** SOURCE_TET=5221
*ELSET, ELSET=ELEM_1393
1393
*ORIENTATION, NAME=ORI_1393, SYSTEM=RECTANGULAR
45.92355267, 23.76390214, 195.37479917, 44.70472241, 23.61304428, 196.07600864
3, 0.
*SHELL SECTION, ELSET=ELEM_1393, COMPOSITE, ORIENTATION=ORI_1393
1.32951093, 3, CFRP, 0.
** SOURCE_TET=6025
*ELSET, ELSET=ELEM_1394
1394
*ORIENTATION, NAME=ORI_1394, SYSTEM=RECTANGULAR
43.25057755, 19.18674073, 197.94737404, 41.99113418, 19.06202335, 198.57844295
3, 0.
*SHELL SECTION, ELSET=ELEM_1394, COMPOSITE, ORIENTATION=ORI_1394
1.33979392, 3, CFRP, 0.
** SOURCE_TET=4806
*ELSET, ELSET=ELEM_1395
1395
*ORIENTATION, NAME=ORI_1395, SYSTEM=RECTANGULAR
54.26718818, 27.49667901, 189.04060177, 53.11297670, 27.44492974, 189.85614936
3, 0.
*SHELL SECTION, ELSET=ELEM_1395, COMPOSITE, ORIENTATION=ORI_1395
1.30685830, 3, CFRP, 0.
** SOURCE_TET=5482
*ELSET, ELSET=ELEM_1396
1396
*ORIENTATION, NAME=ORI_1396, SYSTEM=RECTANGULAR
61.86257333, 18.40443137, 186.01598179, 60.74503769, 18.58842246, 186.86289464
3, 0.
*SHELL SECTION, ELSET=ELEM_1396, COMPOSITE, ORIENTATION=ORI_1396
1.30012035, 3, CFRP, 0.
** SOURCE_TET=5393
*ELSET, ELSET=ELEM_1397
1397
*ORIENTATION, NAME=ORI_1397, SYSTEM=RECTANGULAR
59.84181506, 25.59792283, 185.54597007, 58.71821804, 25.63342467, 186.40403147
3, 0.
*SHELL SECTION, ELSET=ELEM_1397, COMPOSITE, ORIENTATION=ORI_1397
1.30052149, 3, CFRP, 0.
** SOURCE_TET=4591
*ELSET, ELSET=ELEM_1398
1398
*ORIENTATION, NAME=ORI_1398, SYSTEM=RECTANGULAR
51.78602252, 34.38518478, 187.97367460, 50.64684976, 34.20784176, 188.79271969
3, 0.
*SHELL SECTION, ELSET=ELEM_1398, COMPOSITE, ORIENTATION=ORI_1398
1.30232334, 3, CFRP, 0.
** SOURCE_TET=5372
*ELSET, ELSET=ELEM_1399
1399
*ORIENTATION, NAME=ORI_1399, SYSTEM=RECTANGULAR
46.29391345, 35.59291402, 190.90753818, 45.15766244, 35.30278711, 191.69795581
3, 0.
*SHELL SECTION, ELSET=ELEM_1399, COMPOSITE, ORIENTATION=ORI_1399
1.31215525, 3, CFRP, 0.
** SOURCE_TET=4108
*ELSET, ELSET=ELEM_1400
1400
*ORIENTATION, NAME=ORI_1400, SYSTEM=RECTANGULAR
43.94849211, 30.01691747, 194.42378725, 42.75400778, 29.72467324, 195.12221441
3, 0.
*SHELL SECTION, ELSET=ELEM_1400, COMPOSITE, ORIENTATION=ORI_1400
1.32143879, 3, CFRP, 0.
** SOURCE_TET=1761
*ELSET, ELSET=ELEM_1401
1401
*ORIENTATION, NAME=ORI_1401, SYSTEM=RECTANGULAR
37.32494272, 15.98916099, 201.30707277, 36.03211769, 15.81974062, 201.85470419
3, 0.
*SHELL SECTION, ELSET=ELEM_1401, COMPOSITE, ORIENTATION=ORI_1401
1.37210596, 3, CFRP, 0.
** SOURCE_TET=1130
*ELSET, ELSET=ELEM_1402
1402
*ORIENTATION, NAME=ORI_1402, SYSTEM=RECTANGULAR
36.17977765, 10.47234732, 202.58813441, 34.86044559, 10.46284578, 203.09732263
3, 0.
*SHELL SECTION, ELSET=ELEM_1402, COMPOSITE, ORIENTATION=ORI_1402
1.38463736, 3, CFRP, 0.
** SOURCE_TET=3022
*ELSET, ELSET=ELEM_1403
1403
*ORIENTATION, NAME=ORI_1403, SYSTEM=RECTANGULAR
38.52285976, 12.71810797, 201.33935979, 37.21656221, 12.69632795, 201.88075829
3, 0.
*SHELL SECTION, ELSET=ELEM_1403, COMPOSITE, ORIENTATION=ORI_1403
1.36656451, 3, CFRP, 0.
** SOURCE_TET=3326
*ELSET, ELSET=ELEM_1404
1404
*ORIENTATION, NAME=ORI_1404, SYSTEM=RECTANGULAR
39.33436213, 19.83712751, 199.64293023, 38.07846712, 19.60730097, 200.25113043
3, 0.
*SHELL SECTION, ELSET=ELEM_1404, COMPOSITE, ORIENTATION=ORI_1404
1.35447967, 3, CFRP, 0.
** SOURCE_TET=5311
*ELSET, ELSET=ELEM_1405
1405
*ORIENTATION, NAME=ORI_1405, SYSTEM=RECTANGULAR
37.25239874, 23.26137570, 199.75232129, 36.01094024, 22.94042775, 200.34878856
3, 0.
*SHELL SECTION, ELSET=ELEM_1405, COMPOSITE, ORIENTATION=ORI_1405
1.35487366, 3, CFRP, 0.
** SOURCE_TET=3301
*ELSET, ELSET=ELEM_1406
1406
*ORIENTATION, NAME=ORI_1406, SYSTEM=RECTANGULAR
33.98587378, 22.41577901, 201.28739334, 32.73521803, 22.05050351, 201.83733333
3, 0.
*SHELL SECTION, ELSET=ELEM_1406, COMPOSITE, ORIENTATION=ORI_1406
1.36519980, 3, CFRP, 0.
** SOURCE_TET=6924
*ELSET, ELSET=ELEM_1407
1407
*ORIENTATION, NAME=ORI_1407, SYSTEM=RECTANGULAR
-75.06927497, 40.06183157, 161.59192910, -74.75938986, 39.21434235, 162.68084290
3, 0.
*SHELL SECTION, ELSET=ELEM_1407, COMPOSITE, ORIENTATION=ORI_1407
1.27112865, 3, CFRP, 0.
** SOURCE_TET=5534
*ELSET, ELSET=ELEM_1408
1408
*ORIENTATION, NAME=ORI_1408, SYSTEM=RECTANGULAR
-74.58845860, 33.01537529, 167.08920165, -74.13767168, 32.20425646, 168.15638363
3, 0.
*SHELL SECTION, ELSET=ELEM_1408, COMPOSITE, ORIENTATION=ORI_1408
1.27563071, 3, CFRP, 0.
** SOURCE_TET=5924
*ELSET, ELSET=ELEM_1409
1409
*ORIENTATION, NAME=ORI_1409, SYSTEM=RECTANGULAR
-68.85169181, 33.98230949, 173.57621030, -68.33181344, 33.13663486, 174.58346443
3, 0.
*SHELL SECTION, ELSET=ELEM_1409, COMPOSITE, ORIENTATION=ORI_1409
1.28001833, 3, CFRP, 0.
** SOURCE_TET=7277
*ELSET, ELSET=ELEM_1410
1410
*ORIENTATION, NAME=ORI_1410, SYSTEM=RECTANGULAR
-20.49391032, -39.01279296, 199.62846437, -19.56894021, -38.11399549, 200.20863107
3, 0.
*SHELL SECTION, ELSET=ELEM_1410, COMPOSITE, ORIENTATION=ORI_1410
1.35612130, 3, CFRP, 0.
** SOURCE_TET=904
*ELSET, ELSET=ELEM_1411
1411
*ORIENTATION, NAME=ORI_1411, SYSTEM=RECTANGULAR
14.34776481, -25.36701775, 205.62085431, 13.96980820, -24.06075360, 206.00921339
3, 0.
*SHELL SECTION, ELSET=ELEM_1411, COMPOSITE, ORIENTATION=ORI_1411
1.44169176, 3, CFRP, 0.
** SOURCE_TET=1306
*ELSET, ELSET=ELEM_1412
1412
*ORIENTATION, NAME=ORI_1412, SYSTEM=RECTANGULAR
14.48785500, -28.20949957, 204.80260655, 14.22838464, -26.88641928, 205.22937776
3, 0.
*SHELL SECTION, ELSET=ELEM_1412, COMPOSITE, ORIENTATION=ORI_1412
1.42301917, 3, CFRP, 0.
** SOURCE_TET=2769
*ELSET, ELSET=ELEM_1413
1413
*ORIENTATION, NAME=ORI_1413, SYSTEM=RECTANGULAR
12.89334615, -20.23713917, 207.06210213, 12.42525424, -18.94258918, 207.38618590
3, 0.
*SHELL SECTION, ELSET=ELEM_1413, COMPOSITE, ORIENTATION=ORI_1413
1.50222588, 3, CFRP, 0.
** SOURCE_TET=1551
*ELSET, ELSET=ELEM_1414
1414
*ORIENTATION, NAME=ORI_1414, SYSTEM=RECTANGULAR
15.08203181, -20.96429342, 206.58449915, 14.56510333, -19.69500349, 206.93333724
3, 0.
*SHELL SECTION, ELSET=ELEM_1414, COMPOSITE, ORIENTATION=ORI_1414
1.48406458, 3, CFRP, 0.
** SOURCE_TET=1032
*ELSET, ELSET=ELEM_1415
1415
*ORIENTATION, NAME=ORI_1415, SYSTEM=RECTANGULAR
15.96722560, -23.48305800, 205.83950041, 15.50526704, -22.20354635, 206.22608057
3, 0.
*SHELL SECTION, ELSET=ELEM_1415, COMPOSITE, ORIENTATION=ORI_1415
1.44694316, 3, CFRP, 0.
** SOURCE_TET=2038
*ELSET, ELSET=ELEM_1416
1416
*ORIENTATION, NAME=ORI_1416, SYSTEM=RECTANGULAR
11.67835435, -16.80009012, 207.86514906, 11.19680030, -15.49867675, 208.13796575
3, 0.
*SHELL SECTION, ELSET=ELEM_1416, COMPOSITE, ORIENTATION=ORI_1416
1.55922771, 3, CFRP, 0.
** SOURCE_TET=3136
*ELSET, ELSET=ELEM_1417
1417
*ORIENTATION, NAME=ORI_1417, SYSTEM=RECTANGULAR
12.96986257, -18.09655257, 207.47737254, 12.44053219, -16.81840900, 207.77089999
3, 0.
*SHELL SECTION, ELSET=ELEM_1417, COMPOSITE, ORIENTATION=ORI_1417
1.52149069, 3, CFRP, 0.
** SOURCE_TET=3870
*ELSET, ELSET=ELEM_1418
1418
*ORIENTATION, NAME=ORI_1418, SYSTEM=RECTANGULAR
51.57738956, 72.42216638, 154.19465844, 50.75965161, 72.34310918, 155.34576861
3, 0.
*SHELL SECTION, ELSET=ELEM_1418, COMPOSITE, ORIENTATION=ORI_1418
1.26684809, 3, CFRP, 0.
** SOURCE_TET=6494
*ELSET, ELSET=ELEM_1419
1419
*ORIENTATION, NAME=ORI_1419, SYSTEM=RECTANGULAR
42.03107557, 76.70144898, 157.47003287, 41.21320291, 76.45527156, 158.59718903
3, 0.
*SHELL SECTION, ELSET=ELEM_1419, COMPOSITE, ORIENTATION=ORI_1419
1.26973879, 3, CFRP, 0.
** SOURCE_TET=4107
*ELSET, ELSET=ELEM_1420
1420
*ORIENTATION, NAME=ORI_1420, SYSTEM=RECTANGULAR
4.71436300, -47.00021723, 197.96014666, 5.02981320, -45.77848267, 198.59878258
3, 0.
*SHELL SECTION, ELSET=ELEM_1420, COMPOSITE, ORIENTATION=ORI_1420
1.33981347, 3, CFRP, 0.
** SOURCE_TET=5922
*ELSET, ELSET=ELEM_1421
1421
*ORIENTATION, NAME=ORI_1421, SYSTEM=RECTANGULAR
0.14456152, -45.79034557, 198.75911483, 0.54474653, -44.58363556, 199.37855241
3, 0.
*SHELL SECTION, ELSET=ELEM_1421, COMPOSITE, ORIENTATION=ORI_1421
1.34335148, 3, CFRP, 0.
** SOURCE_TET=6449
*ELSET, ELSET=ELEM_1422
1422
*ORIENTATION, NAME=ORI_1422, SYSTEM=RECTANGULAR
-32.21773421, 29.74754824, 199.75674370, -31.59834558, 28.62555390, 200.35464539
3, 0.
*SHELL SECTION, ELSET=ELEM_1422, COMPOSITE, ORIENTATION=ORI_1422
1.35176098, 3, CFRP, 0.
** SOURCE_TET=1676
*ELSET, ELSET=ELEM_1423
1423
*ORIENTATION, NAME=ORI_1423, SYSTEM=RECTANGULAR
-26.37827680, -18.53753290, 204.61992424, -25.10476256, -18.10033216, 205.05237886
3, 0.
*SHELL SECTION, ELSET=ELEM_1423, COMPOSITE, ORIENTATION=ORI_1423
1.41724157, 3, CFRP, 0.
** SOURCE_TET=3296
*ELSET, ELSET=ELEM_1424
1424
*ORIENTATION, NAME=ORI_1424, SYSTEM=RECTANGULAR
-30.28288552, -23.18250704, 202.34359821, -29.05528766, -22.70742210, 202.86060671
3, 0.
*SHELL SECTION, ELSET=ELEM_1424, COMPOSITE, ORIENTATION=ORI_1424
1.37917304, 3, CFRP, 0.
** SOURCE_TET=1893
*ELSET, ELSET=ELEM_1425
1425
*ORIENTATION, NAME=ORI_1425, SYSTEM=RECTANGULAR
-26.97254148, -21.89942940, 203.70743218, -25.74538032, -21.37890014, 204.17979305
3, 0.
*SHELL SECTION, ELSET=ELEM_1425, COMPOSITE, ORIENTATION=ORI_1425
1.39365995, 3, CFRP, 0.
** SOURCE_TET=2997
*ELSET, ELSET=ELEM_1426
1426
*ORIENTATION, NAME=ORI_1426, SYSTEM=RECTANGULAR
-6.94140729, 42.33605344, 200.22054600, -7.11792747, 41.05515098, 200.79337189
3, 0.
*SHELL SECTION, ELSET=ELEM_1426, COMPOSITE, ORIENTATION=ORI_1426
1.35780597, 3, CFRP, 0.
** SOURCE_TET=2900
*ELSET, ELSET=ELEM_1427
1427
*ORIENTATION, NAME=ORI_1427, SYSTEM=RECTANGULAR
0.25643629, 40.62345039, 201.28836479, -0.12885203, 39.37836349, 201.83728328
3, 0.
*SHELL SECTION, ELSET=ELEM_1427, COMPOSITE, ORIENTATION=ORI_1427
1.36393535, 3, CFRP, 0.
** SOURCE_TET=4053
*ELSET, ELSET=ELEM_1428
1428
*ORIENTATION, NAME=ORI_1428, SYSTEM=RECTANGULAR
-2.14949621, 43.20107088, 200.07564312, -2.48908200, 41.95568966, 200.65331701
3, 0.
*SHELL SECTION, ELSET=ELEM_1428, COMPOSITE, ORIENTATION=ORI_1428
1.35562539, 3, CFRP, 0.
** SOURCE_TET=4421
*ELSET, ELSET=ELEM_1429
1429
*ORIENTATION, NAME=ORI_1429, SYSTEM=RECTANGULAR
-17.22559605, 41.28342557, 199.31111000, -17.12910964, 39.99994950, 199.89709597
3, 0.
*SHELL SECTION, ELSET=ELEM_1429, COMPOSITE, ORIENTATION=ORI_1429
1.35006928, 3, CFRP, 0.
** SOURCE_TET=2685
*ELSET, ELSET=ELEM_1430
1430
*ORIENTATION, NAME=ORI_1430, SYSTEM=RECTANGULAR
-16.07282663, 37.94430443, 200.98178957, -15.95826374, 36.65389272, 201.54898702
3, 0.
*SHELL SECTION, ELSET=ELEM_1430, COMPOSITE, ORIENTATION=ORI_1430
1.36073351, 3, CFRP, 0.
** SOURCE_TET=3752
*ELSET, ELSET=ELEM_1431
1431
*ORIENTATION, NAME=ORI_1431, SYSTEM=RECTANGULAR
-45.06538764, 1.25637488, 199.01553586, -43.86193612, 0.83980291, 199.63049296
3, 0.
*SHELL SECTION, ELSET=ELEM_1431, COMPOSITE, ORIENTATION=ORI_1431
1.34620118, 3, CFRP, 0.
** SOURCE_TET=3120
*ELSET, ELSET=ELEM_1432
1432
*ORIENTATION, NAME=ORI_1432, SYSTEM=RECTANGULAR
-18.24650417, -31.35255545, 203.06153551, -17.28381948, -30.43397754, 203.54054783
3, 0.
*SHELL SECTION, ELSET=ELEM_1432, COMPOSITE, ORIENTATION=ORI_1432
1.39367521, 3, CFRP, 0.
** SOURCE_TET=4496
*ELSET, ELSET=ELEM_1433
1433
*ORIENTATION, NAME=ORI_1433, SYSTEM=RECTANGULAR
-21.06852753, -34.94928020, 201.15996148, -20.10293186, -34.07561956, 201.71163358
3, 0.
*SHELL SECTION, ELSET=ELEM_1433, COMPOSITE, ORIENTATION=ORI_1433
1.36667693, 3, CFRP, 0.
** SOURCE_TET=7159
*ELSET, ELSET=ELEM_1434
1434
*ORIENTATION, NAME=ORI_1434, SYSTEM=RECTANGULAR
13.07361381, 22.80692662, 206.44020252, 12.15869153, 21.79048402, 206.80042696
3, 0.
*SHELL SECTION, ELSET=ELEM_1434, COMPOSITE, ORIENTATION=ORI_1434
1.47122633, 3, CFRP, 0.
** SOURCE_TET=1273
*ELSET, ELSET=ELEM_1435
1435
*ORIENTATION, NAME=ORI_1435, SYSTEM=RECTANGULAR
12.08169370, 24.51810952, 206.16547156, 11.21517141, 23.46143183, 206.52957507
3, 0.
*SHELL SECTION, ELSET=ELEM_1435, COMPOSITE, ORIENTATION=ORI_1435
1.46232307, 3, CFRP, 0.
** SOURCE_TET=1236
*ELSET, ELSET=ELEM_1436
1436
*ORIENTATION, NAME=ORI_1436, SYSTEM=RECTANGULAR
18.13207629, 23.55669589, 205.42111496, 17.06092231, 22.73009892, 205.83265668
3, 0.
*SHELL SECTION, ELSET=ELEM_1436, COMPOSITE, ORIENTATION=ORI_1436
1.43281984, 3, CFRP, 0.
** SOURCE_TET=1086
*ELSET, ELSET=ELEM_1437
1437
*ORIENTATION, NAME=ORI_1437, SYSTEM=RECTANGULAR
15.49591754, 22.61851929, 206.14043866, 14.48439130, 21.70189501, 206.51005276
3, 0.
*SHELL SECTION, ELSET=ELEM_1437, COMPOSITE, ORIENTATION=ORI_1437
1.45544302, 3, CFRP, 0.
** SOURCE_TET=783
*ELSET, ELSET=ELEM_1438
1438
*ORIENTATION, NAME=ORI_1438, SYSTEM=RECTANGULAR
4.69261028, 26.74697814, 206.20396468, 4.12829796, 25.50218748, 206.56734854
3, 0.
*SHELL SECTION, ELSET=ELEM_1438, COMPOSITE, ORIENTATION=ORI_1438
1.46532881, 3, CFRP, 0.
** SOURCE_TET=1769
*ELSET, ELSET=ELEM_1439
1439
*ORIENTATION, NAME=ORI_1439, SYSTEM=RECTANGULAR
4.88268079, 29.51420404, 205.38195373, 4.35334234, 28.26656773, 205.78593940
3, 0.
*SHELL SECTION, ELSET=ELEM_1439, COMPOSITE, ORIENTATION=ORI_1439
1.43337691, 3, CFRP, 0.
** SOURCE_TET=667
*ELSET, ELSET=ELEM_1440
1440
*ORIENTATION, NAME=ORI_1440, SYSTEM=RECTANGULAR
6.49709843, 25.20340516, 206.52006566, 5.85912375, 23.99175031, 206.87345048
3, 0.
*SHELL SECTION, ELSET=ELEM_1440, COMPOSITE, ORIENTATION=ORI_1440
1.47488177, 3, CFRP, 0.
** SOURCE_TET=726
*ELSET, ELSET=ELEM_1441
1441
*ORIENTATION, NAME=ORI_1441, SYSTEM=RECTANGULAR
8.74580802, 25.93932519, 206.15935981, 7.99293733, 24.79872941, 206.52299010
3, 0.
*SHELL SECTION, ELSET=ELEM_1441, COMPOSITE, ORIENTATION=ORI_1441
1.46217775, 3, CFRP, 0.
** SOURCE_TET=1797
*ELSET, ELSET=ELEM_1442
1442
*ORIENTATION, NAME=ORI_1442, SYSTEM=RECTANGULAR
9.06982740, 20.41138723, 207.45357867, 8.21964125, 19.32148202, 207.75239325
3, 0.
*SHELL SECTION, ELSET=ELEM_1442, COMPOSITE, ORIENTATION=ORI_1442
1.53218102, 3, CFRP, 0.
** SOURCE_TET=437
*ELSET, ELSET=ELEM_1443
1443
*ORIENTATION, NAME=ORI_1443, SYSTEM=RECTANGULAR
8.25825230, 21.96961145, 207.19024113, 7.53642344, 20.79407331, 207.50180679
3, 0.
*SHELL SECTION, ELSET=ELEM_1443, COMPOSITE, ORIENTATION=ORI_1443
1.51358247, 3, CFRP, 0.
** SOURCE_TET=1181
*ELSET, ELSET=ELEM_1444
1444
*ORIENTATION, NAME=ORI_1444, SYSTEM=RECTANGULAR
11.42801608, 20.77039243, 207.13406652, 10.50726359, 19.74487753, 207.45113755
3, 0.
*SHELL SECTION, ELSET=ELEM_1444, COMPOSITE, ORIENTATION=ORI_1444
1.51548326, 3, CFRP, 0.
** SOURCE_TET=981
*ELSET, ELSET=ELEM_1445
1445
*ORIENTATION, NAME=ORI_1445, SYSTEM=RECTANGULAR
9.66919726, 24.04497418, 206.56290046, 8.86751291, 22.93435322, 206.91478579
3, 0.
*SHELL SECTION, ELSET=ELEM_1445, COMPOSITE, ORIENTATION=ORI_1445
1.47430921, 3, CFRP, 0.
** SOURCE_TET=4545
*ELSET, ELSET=ELEM_1446
1446
*ORIENTATION, NAME=ORI_1446, SYSTEM=RECTANGULAR
42.13300441, -29.86053729, 195.40502242, 41.44767263, -28.84306216, 196.10863077
3, 0.
*SHELL SECTION, ELSET=ELEM_1446, COMPOSITE, ORIENTATION=ORI_1446
1.32707310, 3, CFRP, 0.
** SOURCE_TET=7410
*ELSET, ELSET=ELEM_1447
1447
*ORIENTATION, NAME=ORI_1447, SYSTEM=RECTANGULAR
74.10666141, -58.06418378, 141.46588284, 74.18536181, -57.31602221, 142.66340550
3, 0.
*SHELL SECTION, ELSET=ELEM_1447, COMPOSITE, ORIENTATION=ORI_1447
1.26355088, 3, CFRP, 0.
** SOURCE_TET=2291
*ELSET, ELSET=ELEM_1448
1448
*ORIENTATION, NAME=ORI_1448, SYSTEM=RECTANGULAR
-23.90366968, 15.39645054, 205.81589427, -22.99693894, 14.38223504, 206.20216654
3, 0.
*SHELL SECTION, ELSET=ELEM_1448, COMPOSITE, ORIENTATION=ORI_1448
1.44326687, 3, CFRP, 0.
** SOURCE_TET=6283
*ELSET, ELSET=ELEM_1449
1449
*ORIENTATION, NAME=ORI_1449, SYSTEM=RECTANGULAR
80.45771810, -39.91063300, 152.71288253, 80.23079978, -39.11700325, 153.86121170
3, 0.
*SHELL SECTION, ELSET=ELEM_1449, COMPOSITE, ORIENTATION=ORI_1449
1.26759613, 3, CFRP, 0.
** SOURCE_TET=5794
*ELSET, ELSET=ELEM_1450
1450
*ORIENTATION, NAME=ORI_1450, SYSTEM=RECTANGULAR
-80.57226900, 39.05915029, 153.27004332, -80.33565102, 38.27095179, 154.42015420
3, 0.
*SHELL SECTION, ELSET=ELEM_1450, COMPOSITE, ORIENTATION=ORI_1450
1.26725912, 3, CFRP, 0.
** SOURCE_TET=4719
*ELSET, ELSET=ELEM_1451
1451
*ORIENTATION, NAME=ORI_1451, SYSTEM=RECTANGULAR
-71.57788960, 55.83566068, 150.88694423, -71.52905933, 55.02304782, 152.04335071
3, 0.
*SHELL SECTION, ELSET=ELEM_1451, COMPOSITE, ORIENTATION=ORI_1451
1.26680398, 3, CFRP, 0.
** SOURCE_TET=6075
*ELSET, ELSET=ELEM_1452
1452
*ORIENTATION, NAME=ORI_1452, SYSTEM=RECTANGULAR
-78.49342082, 47.83624242, 147.62613948, -78.41913614, 47.05674964, 148.80379512
3, 0.
*SHELL SECTION, ELSET=ELEM_1452, COMPOSITE, ORIENTATION=ORI_1452
1.26420784, 3, CFRP, 0.
** SOURCE_TET=4320
*ELSET, ELSET=ELEM_1453
1453
*ORIENTATION, NAME=ORI_1453, SYSTEM=RECTANGULAR
-84.01266079, 19.76646075, 159.16213412, -83.53558253, 19.04914302, 160.28367396
3, 0.
*SHELL SECTION, ELSET=ELEM_1453, COMPOSITE, ORIENTATION=ORI_1453
1.27074778, 3, CFRP, 0.
** SOURCE_TET=3415
*ELSET, ELSET=ELEM_1454
1454
*ORIENTATION, NAME=ORI_1454, SYSTEM=RECTANGULAR
-85.79041418, 27.57343884, 151.43886866, -85.48418555, 26.81308558, 152.59129521
3, 0.
*SHELL SECTION, ELSET=ELEM_1454, COMPOSITE, ORIENTATION=ORI_1454
1.26664674, 3, CFRP, 0.
** SOURCE_TET=5626
*ELSET, ELSET=ELEM_1455
1455
*ORIENTATION, NAME=ORI_1455, SYSTEM=RECTANGULAR
-78.28634099, 24.22442474, 166.47398292, -77.74646052, 23.47825798, 167.54718572
3, 0.
*SHELL SECTION, ELSET=ELEM_1455, COMPOSITE, ORIENTATION=ORI_1455
1.27446032, 3, CFRP, 0.
** SOURCE_TET=3750
*ELSET, ELSET=ELEM_1456
1456
*ORIENTATION, NAME=ORI_1456, SYSTEM=RECTANGULAR
36.43492194, -7.82052682, 202.73021038, 35.25973135, -7.22214267, 203.24095836
3, 0.
*SHELL SECTION, ELSET=ELEM_1456, COMPOSITE, ORIENTATION=ORI_1456
1.38457918, 3, CFRP, 0.
** SOURCE_TET=1358
*ELSET, ELSET=ELEM_1457
1457
*ORIENTATION, NAME=ORI_1457, SYSTEM=RECTANGULAR
36.99574734, 7.88093072, 202.52107339, 35.67876051, 7.98292329, 203.02619040
3, 0.
*SHELL SECTION, ELSET=ELEM_1457, COMPOSITE, ORIENTATION=ORI_1457
1.38275254, 3, CFRP, 0.
** SOURCE_TET=4811
*ELSET, ELSET=ELEM_1458
1458
*ORIENTATION, NAME=ORI_1458, SYSTEM=RECTANGULAR
70.33744410, 62.13542594, 142.07877223, 69.59747005, 62.33390589, 143.26748755
3, 0.
*SHELL SECTION, ELSET=ELEM_1458, COMPOSITE, ORIENTATION=ORI_1458
1.26358044, 3, CFRP, 0.
** SOURCE_TET=6713
*ELSET, ELSET=ELEM_1459
1459
*ORIENTATION, NAME=ORI_1459, SYSTEM=RECTANGULAR
90.80982114, -22.92380956, 142.93655681, 90.59366053, -22.19477720, 144.12894367
3, 0.
*SHELL SECTION, ELSET=ELEM_1459, COMPOSITE, ORIENTATION=ORI_1459
1.26324689, 3, CFRP, 0.
** SOURCE_TET=4679
*ELSET, ELSET=ELEM_1460
1460
*ORIENTATION, NAME=ORI_1460, SYSTEM=RECTANGULAR
-90.37327026, 25.71277855, 141.34179824, -90.13546475, 24.98582236, 142.53132892
3, 0.
*SHELL SECTION, ELSET=ELEM_1460, COMPOSITE, ORIENTATION=ORI_1460
1.26339960, 3, CFRP, 0.
** SOURCE_TET=6957
*ELSET, ELSET=ELEM_1461
1461
*ORIENTATION, NAME=ORI_1461, SYSTEM=RECTANGULAR
-89.32378510, -29.37359701, 142.02622334, -88.73191536, -29.86263025, 143.21388352
3, 0.
*SHELL SECTION, ELSET=ELEM_1461, COMPOSITE, ORIENTATION=ORI_1461
1.26261866, 3, CFRP, 0.
** SOURCE_TET=6495
*ELSET, ELSET=ELEM_1462
1462
*ORIENTATION, NAME=ORI_1462, SYSTEM=RECTANGULAR
-76.18932025, -45.83212051, 154.36720736, -75.38477266, -46.08381314, 155.50270461
3, 0.
*SHELL SECTION, ELSET=ELEM_1462, COMPOSITE, ORIENTATION=ORI_1462
1.26754820, 3, CFRP, 0.
** SOURCE_TET=5807
*ELSET, ELSET=ELEM_1463
1463
*ORIENTATION, NAME=ORI_1463, SYSTEM=RECTANGULAR
-78.65534897, -36.53790576, 158.57147520, -77.83268289, -36.82085916, 159.68644511
3, 0.
*SHELL SECTION, ELSET=ELEM_1463, COMPOSITE, ORIENTATION=ORI_1463
1.26917148, 3, CFRP, 0.
** SOURCE_TET=7340
*ELSET, ELSET=ELEM_1464
1464
*ORIENTATION, NAME=ORI_1464, SYSTEM=RECTANGULAR
-84.67322094, -29.19429305, 153.10669717, -83.93391865, -29.61988243, 154.23466251
3, 0.
*SHELL SECTION, ELSET=ELEM_1464, COMPOSITE, ORIENTATION=ORI_1464
1.26663589, 3, CFRP, 0.
** SOURCE_TET=3291
*ELSET, ELSET=ELEM_1465
1465
*ORIENTATION, NAME=ORI_1465, SYSTEM=RECTANGULAR
-66.62212905, -64.78068229, 144.64348816, -65.86561612, -64.93331401, 145.82855851
3, 0.
*SHELL SECTION, ELSET=ELEM_1465, COMPOSITE, ORIENTATION=ORI_1465
1.26397359, 3, CFRP, 0.
** SOURCE_TET=5982
*ELSET, ELSET=ELEM_1466
1466
*ORIENTATION, NAME=ORI_1466, SYSTEM=RECTANGULAR
-63.76266890, -61.38769846, 155.31122995, -62.91460130, -61.44533125, 156.44147762
3, 0.
*SHELL SECTION, ELSET=ELEM_1466, COMPOSITE, ORIENTATION=ORI_1466
1.26764977, 3, CFRP, 0.
** SOURCE_TET=6457
*ELSET, ELSET=ELEM_1467
1467
*ORIENTATION, NAME=ORI_1467, SYSTEM=RECTANGULAR
-68.46690528, -52.56154415, 159.46727499, -67.58917702, -52.63063101, 160.57399090
3, 0.
*SHELL SECTION, ELSET=ELEM_1467, COMPOSITE, ORIENTATION=ORI_1467
1.27117682, 3, CFRP, 0.
** SOURCE_TET=6794
*ELSET, ELSET=ELEM_1468
1468
*ORIENTATION, NAME=ORI_1468, SYSTEM=RECTANGULAR
-61.18598328, -72.50196555, 139.66235237, -60.44107538, -72.62963814, 140.85768158
3, 0.
*SHELL SECTION, ELSET=ELEM_1468, COMPOSITE, ORIENTATION=ORI_1468
1.26292992, 3, CFRP, 0.
** SOURCE_TET=3709
*ELSET, ELSET=ELEM_1469
1469
*ORIENTATION, NAME=ORI_1469, SYSTEM=RECTANGULAR
-54.84559899, -65.52831849, 160.79262348, -53.96057754, -65.39772798, 161.88792396
3, 0.
*SHELL SECTION, ELSET=ELEM_1469, COMPOSITE, ORIENTATION=ORI_1469
1.27102220, 3, CFRP, 0.
** SOURCE_TET=5840
*ELSET, ELSET=ELEM_1470
1470
*ORIENTATION, NAME=ORI_1470, SYSTEM=RECTANGULAR
-49.27184721, -72.65659822, 156.59333228, -48.42185301, -72.48299736, 157.71019064
3, 0.
*SHELL SECTION, ELSET=ELEM_1470, COMPOSITE, ORIENTATION=ORI_1470
1.26802850, 3, CFRP, 0.
** SOURCE_TET=7063
*ELSET, ELSET=ELEM_1471
1471
*ORIENTATION, NAME=ORI_1471, SYSTEM=RECTANGULAR
-52.71752973, -76.22178497, 146.12145857, -51.93268807, -76.19828572, 147.29766916
3, 0.
*SHELL SECTION, ELSET=ELEM_1471, COMPOSITE, ORIENTATION=ORI_1471
1.26468658, 3, CFRP, 0.
** SOURCE_TET=762
*ELSET, ELSET=ELEM_1472
1472
*ORIENTATION, NAME=ORI_1472, SYSTEM=RECTANGULAR
-17.58586896, 16.18804136, 207.07223885, -16.81696703, 15.04347500, 207.38649616
3, 0.
*SHELL SECTION, ELSET=ELEM_1472, COMPOSITE, ORIENTATION=ORI_1472
1.50243545, 3, CFRP, 0.
** SOURCE_TET=955
*ELSET, ELSET=ELEM_1473
1473
*ORIENTATION, NAME=ORI_1473, SYSTEM=RECTANGULAR
-22.02434916, 13.48948674, 206.57593165, -21.07982456, 12.49985332, 206.93439917
3, 0.
*SHELL SECTION, ELSET=ELEM_1473, COMPOSITE, ORIENTATION=ORI_1473
1.47473407, 3, CFRP, 0.
** SOURCE_TET=6880
*ELSET, ELSET=ELEM_1474
1474
*ORIENTATION, NAME=ORI_1474, SYSTEM=RECTANGULAR
66.98173818, 16.04213899, 182.21446148, 65.92032036, 16.30751556, 183.11054602
3, 0.
*SHELL SECTION, ELSET=ELEM_1474, COMPOSITE, ORIENTATION=ORI_1474
1.29177403, 3, CFRP, 0.
** SOURCE_TET=7018
*ELSET, ELSET=ELEM_1475
1475
*ORIENTATION, NAME=ORI_1475, SYSTEM=RECTANGULAR
64.20285162, 30.74716766, 179.68914629, 63.14991324, 30.82017709, 180.63041692
3, 0.
*SHELL SECTION, ELSET=ELEM_1475, COMPOSITE, ORIENTATION=ORI_1475
1.28908539, 3, CFRP, 0.
** SOURCE_TET=6553
*ELSET, ELSET=ELEM_1476
1476
*ORIENTATION, NAME=ORI_1476, SYSTEM=RECTANGULAR
66.85942631, -16.54288373, 182.12521696, 66.04851411, -15.81672810, 183.02805660
3, 0.
*SHELL SECTION, ELSET=ELEM_1476, COMPOSITE, ORIENTATION=ORI_1476
1.29238009, 3, CFRP, 0.
** SOURCE_TET=3770
*ELSET, ELSET=ELEM_1477
1477
*ORIENTATION, NAME=ORI_1477, SYSTEM=RECTANGULAR
69.83325668, -22.38275360, 177.49386813, 69.14117067, -21.62265012, 178.46508368
3, 0.
*SHELL SECTION, ELSET=ELEM_1477, COMPOSITE, ORIENTATION=ORI_1477
1.28717124, 3, CFRP, 0.
** SOURCE_TET=1851
*ELSET, ELSET=ELEM_1478
1478
*ORIENTATION, NAME=ORI_1478, SYSTEM=RECTANGULAR
25.13963284, 4.87068785, 206.64776504, 23.77142101, 4.96228730, 206.99360594
3, 0.
*SHELL SECTION, ELSET=ELEM_1478, COMPOSITE, ORIENTATION=ORI_1478
1.47978663, 3, CFRP, 0.
** SOURCE_TET=2054
*ELSET, ELSET=ELEM_1479
1479
*ORIENTATION, NAME=ORI_1479, SYSTEM=RECTANGULAR
25.93387108, -3.85630125, 206.48233328, 24.65535195, -3.36368756, 206.83264829
3, 0.
*SHELL SECTION, ELSET=ELEM_1479, COMPOSITE, ORIENTATION=ORI_1479
1.46984661, 3, CFRP, 0.
** SOURCE_TET=760
*ELSET, ELSET=ELEM_1480
1480
*ORIENTATION, NAME=ORI_1480, SYSTEM=RECTANGULAR
27.78227941, -5.20914237, 205.90040788, 26.53043358, -4.67546076, 206.28520128
3, 0.
*SHELL SECTION, ELSET=ELEM_1480, COMPOSITE, ORIENTATION=ORI_1480
1.45365453, 3, CFRP, 0.
** SOURCE_TET=846
*ELSET, ELSET=ELEM_1481
1481
*ORIENTATION, NAME=ORI_1481, SYSTEM=RECTANGULAR
20.08363366, 21.76255188, 205.48205984, 18.95693711, 21.00770639, 205.88301268
3, 0.
*SHELL SECTION, ELSET=ELEM_1481, COMPOSITE, ORIENTATION=ORI_1481
1.43360889, 3, CFRP, 0.
** SOURCE_TET=2145
*ELSET, ELSET=ELEM_1482
1482
*ORIENTATION, NAME=ORI_1482, SYSTEM=RECTANGULAR
22.98055090, 21.36749376, 204.90899405, 21.79370192, 20.72712666, 205.33481030
3, 0.
*SHELL SECTION, ELSET=ELEM_1482, COMPOSITE, ORIENTATION=ORI_1482
1.42201817, 3, CFRP, 0.
** SOURCE_TET=4381
*ELSET, ELSET=ELEM_1483
1483
*ORIENTATION, NAME=ORI_1483, SYSTEM=RECTANGULAR
37.06349136, -28.50977908, 198.24067787, 36.35902368, -27.45662043, 198.86883562
3, 0.
*SHELL SECTION, ELSET=ELEM_1483, COMPOSITE, ORIENTATION=ORI_1483
1.34463835, 3, CFRP, 0.
** SOURCE_TET=3512
*ELSET, ELSET=ELEM_1484
1484
*ORIENTATION, NAME=ORI_1484, SYSTEM=RECTANGULAR
37.14109380, -23.34469519, 199.73291229, 36.29737669, -22.37507340, 200.32280636
3, 0.
*SHELL SECTION, ELSET=ELEM_1484, COMPOSITE, ORIENTATION=ORI_1484
1.35168719, 3, CFRP, 0.
** SOURCE_TET=6694
*ELSET, ELSET=ELEM_1485
1485
*ORIENTATION, NAME=ORI_1485, SYSTEM=RECTANGULAR
-88.30963810, 2.19011858, 155.61414949, -87.73544719, 1.57385378, 156.75016115
3, 0.
*SHELL SECTION, ELSET=ELEM_1485, COMPOSITE, ORIENTATION=ORI_1485
1.26871443, 3, CFRP, 0.
** SOURCE_TET=6536
*ELSET, ELSET=ELEM_1486
1486
*ORIENTATION, NAME=ORI_1486, SYSTEM=RECTANGULAR
-84.90701406, 8.94696606, 160.89019677, -84.31567394, 8.30929540, 162.00540661
3, 0.
*SHELL SECTION, ELSET=ELEM_1486, COMPOSITE, ORIENTATION=ORI_1486
1.27102411, 3, CFRP, 0.
** SOURCE_TET=7107
*ELSET, ELSET=ELEM_1487
1487
*ORIENTATION, NAME=ORI_1487, SYSTEM=RECTANGULAR
-86.69333009, -6.95579810, 158.69005816, -86.02024635, -7.51175051, 159.80265657
3, 0.
*SHELL SECTION, ELSET=ELEM_1487, COMPOSITE, ORIENTATION=ORI_1487
1.26994801, 3, CFRP, 0.
** SOURCE_TET=7088
*ELSET, ELSET=ELEM_1488
1488
*ORIENTATION, NAME=ORI_1488, SYSTEM=RECTANGULAR
-88.85366300, -13.81920952, 152.87857618, -88.21593411, -14.34855778, 154.02447857
3, 0.
*SHELL SECTION, ELSET=ELEM_1488, COMPOSITE, ORIENTATION=ORI_1488
1.26649761, 3, CFRP, 0.
** SOURCE_TET=2614
*ELSET, ELSET=ELEM_1489
1489
*ORIENTATION, NAME=ORI_1489, SYSTEM=RECTANGULAR
4.54032463, -19.25941323, 208.00050545, 4.52805070, -17.87015563, 208.26472631
3, 0.
*SHELL SECTION, ELSET=ELEM_1489, COMPOSITE, ORIENTATION=ORI_1489
1.56776762, 3, CFRP, 0.
** SOURCE_TET=3112
*ELSET, ELSET=ELEM_1490
1490
*ORIENTATION, NAME=ORI_1490, SYSTEM=RECTANGULAR
-15.62531683, -4.88927416, 208.62955303, -14.23256097, -4.77845740, 208.84852963
3, 0.
*SHELL SECTION, ELSET=ELEM_1490, COMPOSITE, ORIENTATION=ORI_1490
1.59087670, 3, CFRP, 0.
** SOURCE_TET=1237
*ELSET, ELSET=ELEM_1491
1491
*ORIENTATION, NAME=ORI_1491, SYSTEM=RECTANGULAR
-18.48811489, 2.23987637, 208.23006175, -17.17779510, 1.77211125, 208.48355303
3, 0.
*SHELL SECTION, ELSET=ELEM_1491, COMPOSITE, ORIENTATION=ORI_1491
1.57449913, 3, CFRP, 0.
** SOURCE_TET=6772
*ELSET, ELSET=ELEM_1492
1492
*ORIENTATION, NAME=ORI_1492, SYSTEM=RECTANGULAR
-37.62473158, -85.09743182, 144.58219434, -36.86302142, -84.95510901, 145.76521668
3, 0.
*SHELL SECTION, ELSET=ELEM_1492, COMPOSITE, ORIENTATION=ORI_1492
1.26323283, 3, CFRP, 0.
** SOURCE_TET=6755
*ELSET, ELSET=ELEM_1493
1493
*ORIENTATION, NAME=ORI_1493, SYSTEM=RECTANGULAR
-47.19746311, -82.24010430, 139.81400833, -46.43650952, -82.21542679, 141.00578878
3, 0.
*SHELL SECTION, ELSET=ELEM_1493, COMPOSITE, ORIENTATION=ORI_1493
1.26329708, 3, CFRP, 0.
** SOURCE_TET=6483
*ELSET, ELSET=ELEM_1494
1494
*ORIENTATION, NAME=ORI_1494, SYSTEM=RECTANGULAR
-16.72542079, -87.03471024, 155.04392843, -16.01448078, -86.58172689, 156.17943290
3, 0.
*SHELL SECTION, ELSET=ELEM_1494, COMPOSITE, ORIENTATION=ORI_1494
1.26733732, 3, CFRP, 0.
** SOURCE_TET=6745
*ELSET, ELSET=ELEM_1495
1495
*ORIENTATION, NAME=ORI_1495, SYSTEM=RECTANGULAR
-23.98977541, -82.26263833, 160.45986499, -23.23454079, -81.81076170, 161.56685558
3, 0.
*SHELL SECTION, ELSET=ELEM_1495, COMPOSITE, ORIENTATION=ORI_1495
1.27100646, 3, CFRP, 0.
** SOURCE_TET=6408
*ELSET, ELSET=ELEM_1496
1496
*ORIENTATION, NAME=ORI_1496, SYSTEM=RECTANGULAR
-33.69258738, -81.33371301, 156.06591865, -32.90853674, -80.99887245, 157.19425653
3, 0.
*SHELL SECTION, ELSET=ELEM_1496, COMPOSITE, ORIENTATION=ORI_1496
1.26910615, 3, CFRP, 0.
** SOURCE_TET=3028
*ELSET, ELSET=ELEM_1497
1497
*ORIENTATION, NAME=ORI_1497, SYSTEM=RECTANGULAR
2.76918563, -93.21701240, 143.77175642, 3.39679530, -92.77287289, 144.95870469
3, 0.
*SHELL SECTION, ELSET=ELEM_1497, COMPOSITE, ORIENTATION=ORI_1497
1.26386333, 3, CFRP, 0.
** SOURCE_TET=2935
*ELSET, ELSET=ELEM_1498
1498
*ORIENTATION, NAME=ORI_1498, SYSTEM=RECTANGULAR
2.65381910, -88.24719734, 155.44259631, 3.25043072, -87.63784221, 156.57075450
3, 0.
*SHELL SECTION, ELSET=ELEM_1498, COMPOSITE, ORIENTATION=ORI_1498
1.26860046, 3, CFRP, 0.
** SOURCE_TET=3298
*ELSET, ELSET=ELEM_1499
1499
*ORIENTATION, NAME=ORI_1499, SYSTEM=RECTANGULAR
-6.55017304, -85.51486983, 160.23280930, -5.91732733, -84.90137368, 161.33876083
3, 0.
*SHELL SECTION, ELSET=ELEM_1499, COMPOSITE, ORIENTATION=ORI_1499
1.27061915, 3, CFRP, 0.
** SOURCE_TET=7061
*ELSET, ELSET=ELEM_1500
1500
*ORIENTATION, NAME=ORI_1500, SYSTEM=RECTANGULAR
12.85905822, -94.23666362, 138.73940160, 13.45552679, -93.78590201, 139.93983453
3, 0.
*SHELL SECTION, ELSET=ELEM_1500, COMPOSITE, ORIENTATION=ORI_1500
1.26192820, 3, CFRP, 0.
** SOURCE_TET=2968
*ELSET, ELSET=ELEM_1501
1501
*ORIENTATION, NAME=ORI_1501, SYSTEM=RECTANGULAR
12.53319837, -84.66221483, 160.43553289, 13.01998177, -83.92952425, 161.54287495
3, 0.
*SHELL SECTION, ELSET=ELEM_1501, COMPOSITE, ORIENTATION=ORI_1501
1.27099788, 3, CFRP, 0.
** SOURCE_TET=5186
*ELSET, ELSET=ELEM_1502
1502
*ORIENTATION, NAME=ORI_1502, SYSTEM=RECTANGULAR
22.06126683, -85.56676412, 155.42786244, 22.51307897, -84.84551299, 156.55731478
3, 0.
*SHELL SECTION, ELSET=ELEM_1502, COMPOSITE, ORIENTATION=ORI_1502
1.26728523, 3, CFRP, 0.
** SOURCE_TET=5814
*ELSET, ELSET=ELEM_1503
1503
*ORIENTATION, NAME=ORI_1503, SYSTEM=RECTANGULAR
22.28463445, -90.14736279, 145.39687924, 22.79180826, -89.54101552, 146.56953337
3, 0.
*SHELL SECTION, ELSET=ELEM_1503, COMPOSITE, ORIENTATION=ORI_1503
1.26431477, 3, CFRP, 0.
** SOURCE_TET=6239
*ELSET, ELSET=ELEM_1504
1504
*ORIENTATION, NAME=ORI_1504, SYSTEM=RECTANGULAR
13.09660910, -79.31309451, 168.74540875, 13.53111826, -78.47889258, 169.80149063
3, 0.
*SHELL SECTION, ELSET=ELEM_1504, COMPOSITE, ORIENTATION=ORI_1504
1.27536690, 3, CFRP, 0.
** SOURCE_TET=5684
*ELSET, ELSET=ELEM_1505
1505
*ORIENTATION, NAME=ORI_1505, SYSTEM=RECTANGULAR
-6.35557193, -80.63536226, 168.07465715, -5.72343744, -79.93954457, 169.13118150
3, 0.
*SHELL SECTION, ELSET=ELEM_1505, COMPOSITE, ORIENTATION=ORI_1505
1.27582586, 3, CFRP, 0.
** SOURCE_TET=5352
*ELSET, ELSET=ELEM_1506
1506
*ORIENTATION, NAME=ORI_1506, SYSTEM=RECTANGULAR
30.80860450, -80.10994032, 160.21789394, 31.12200692, -79.28556134, 161.32341564
3, 0.
*SHELL SECTION, ELSET=ELEM_1506, COMPOSITE, ORIENTATION=ORI_1506
1.27111614, 3, CFRP, 0.
** SOURCE_TET=6778
*ELSET, ELSET=ELEM_1507
1507
*ORIENTATION, NAME=ORI_1507, SYSTEM=RECTANGULAR
31.30060458, -89.67358316, 139.03248960, 31.78397049, -89.08981392, 140.22646233
3, 0.
*SHELL SECTION, ELSET=ELEM_1507, COMPOSITE, ORIENTATION=ORI_1507
1.26208889, 3, CFRP, 0.
** SOURCE_TET=6631
*ELSET, ELSET=ELEM_1508
1508
*ORIENTATION, NAME=ORI_1508, SYSTEM=RECTANGULAR
40.22594922, -79.08477290, 154.79506288, 40.51271272, -78.29025420, 155.92930569
3, 0.
*SHELL SECTION, ELSET=ELEM_1508, COMPOSITE, ORIENTATION=ORI_1508
1.26690865, 3, CFRP, 0.
** SOURCE_TET=5595
*ELSET, ELSET=ELEM_1509
1509
*ORIENTATION, NAME=ORI_1509, SYSTEM=RECTANGULAR
40.50112561, -84.04625586, 143.63964969, 40.88829490, -83.38642765, 144.82907252
3, 0.
*SHELL SECTION, ELSET=ELEM_1509, COMPOSITE, ORIENTATION=ORI_1509
1.26384223, 3, CFRP, 0.
** SOURCE_TET=5029
*ELSET, ELSET=ELEM_1510
1510
*ORIENTATION, NAME=ORI_1510, SYSTEM=RECTANGULAR
36.82605678, 27.45635658, 198.69087362, 35.63195445, 27.04457545, 199.32692072
3, 0.
*SHELL SECTION, ELSET=ELEM_1510, COMPOSITE, ORIENTATION=ORI_1510
1.34452331, 3, CFRP, 0.
** SOURCE_TET=3863
*ELSET, ELSET=ELEM_1511
1511
*ORIENTATION, NAME=ORI_1511, SYSTEM=RECTANGULAR
39.15142880, 31.13833646, 196.36759426, 37.98456515, 30.72804835, 197.05322747
3, 0.
*SHELL SECTION, ELSET=ELEM_1511, COMPOSITE, ORIENTATION=ORI_1511
1.33426356, 3, CFRP, 0.
** SOURCE_TET=6309
*ELSET, ELSET=ELEM_1512
1512
*ORIENTATION, NAME=ORI_1512, SYSTEM=RECTANGULAR
43.04500700, 41.26872694, 190.06270119, 41.95731254, 40.83733337, 190.85694319
3, 0.
*SHELL SECTION, ELSET=ELEM_1512, COMPOSITE, ORIENTATION=ORI_1512
1.31030262, 3, CFRP, 0.
** SOURCE_TET=692
*ELSET, ELSET=ELEM_1513
1513
*ORIENTATION, NAME=ORI_1513, SYSTEM=RECTANGULAR
23.42263337, -9.36944490, 206.73936298, 22.27461883, -8.61782339, 207.08160227
3, 0.
*SHELL SECTION, ELSET=ELEM_1513, COMPOSITE, ORIENTATION=ORI_1513
1.48580635, 3, CFRP, 0.
** SOURCE_TET=2519
*ELSET, ELSET=ELEM_1514
1514
*ORIENTATION, NAME=ORI_1514, SYSTEM=RECTANGULAR
24.76349722, -7.53287860, 206.57275945, 23.57045991, -6.85666016, 206.91828890
3, 0.
*SHELL SECTION, ELSET=ELEM_1514, COMPOSITE, ORIENTATION=ORI_1514
1.47933948, 3, CFRP, 0.
** SOURCE_TET=2884
*ELSET, ELSET=ELEM_1515
1515
*ORIENTATION, NAME=ORI_1515, SYSTEM=RECTANGULAR
24.09806583, -5.32270912, 206.88503001, 22.86053381, -4.72078039, 207.21090774
3, 0.
*SHELL SECTION, ELSET=ELEM_1515, COMPOSITE, ORIENTATION=ORI_1515
1.49057221, 3, CFRP, 0.
** SOURCE_TET=415
*ELSET, ELSET=ELEM_1516
1516
*ORIENTATION, NAME=ORI_1516, SYSTEM=RECTANGULAR
27.13423047, -7.37513246, 205.94281041, 25.93861765, -6.72436098, 206.32622463
3, 0.
*SHELL SECTION, ELSET=ELEM_1516, COMPOSITE, ORIENTATION=ORI_1516
1.46037066, 3, CFRP, 0.
** SOURCE_TET=2921
*ELSET, ELSET=ELEM_1517
1517
*ORIENTATION, NAME=ORI_1517, SYSTEM=RECTANGULAR
4.21829037, 21.57100418, 207.52568103, 3.65660202, 20.30638482, 207.81764692
3, 0.
*SHELL SECTION, ELSET=ELEM_1517, COMPOSITE, ORIENTATION=ORI_1517
1.53049827, 3, CFRP, 0.
** SOURCE_TET=1971
*ELSET, ELSET=ELEM_1518
1518
*ORIENTATION, NAME=ORI_1518, SYSTEM=RECTANGULAR
6.24427495, 22.58444553, 207.19420492, 5.60638444, 21.36044701, 207.50230120
3, 0.
*SHELL SECTION, ELSET=ELEM_1518, COMPOSITE, ORIENTATION=ORI_1518
1.51344633, 3, CFRP, 0.
** SOURCE_TET=2458
*ELSET, ELSET=ELEM_1519
1519
*ORIENTATION, NAME=ORI_1519, SYSTEM=RECTANGULAR
3.97836146, 19.38696185, 207.99163326, 3.41067753, 18.12023421, 208.26207001
3, 0.
*SHELL SECTION, ELSET=ELEM_1519, COMPOSITE, ORIENTATION=ORI_1519
1.56007600, 3, CFRP, 0.
** SOURCE_TET=67
*ELSET, ELSET=ELEM_1520
1520
*ORIENTATION, NAME=ORI_1520, SYSTEM=RECTANGULAR
-8.90568465, 15.58384389, 208.35898817, -8.53309125, 14.23986745, 208.59329885
3, 0.
*SHELL SECTION, ELSET=ELEM_1520, COMPOSITE, ORIENTATION=ORI_1520
1.58835387, 3, CFRP, 0.
** SOURCE_TET=5812
*ELSET, ELSET=ELEM_1521
1521
*ORIENTATION, NAME=ORI_1521, SYSTEM=RECTANGULAR
-52.77707691, -61.17126336, 168.22687234, -51.86038079, -60.97920865, 169.28648699
3, 0.
*SHELL SECTION, ELSET=ELEM_1521, COMPOSITE, ORIENTATION=ORI_1521
1.27489245, 3, CFRP, 0.
** SOURCE_TET=6329
*ELSET, ELSET=ELEM_1522
1522
*ORIENTATION, NAME=ORI_1522, SYSTEM=RECTANGULAR
-35.73121498, -70.46636908, 170.54408449, -34.87652673, -70.01715097, 171.57738555
3, 0.
*SHELL SECTION, ELSET=ELEM_1522, COMPOSITE, ORIENTATION=ORI_1522
1.27813911, 3, CFRP, 0.
** SOURCE_TET=3914
*ELSET, ELSET=ELEM_1523
1523
*ORIENTATION, NAME=ORI_1523, SYSTEM=RECTANGULAR
-39.79963299, -74.86492003, 161.74340135, -38.97006063, -74.54732553, 162.84383009
3, 0.
*SHELL SECTION, ELSET=ELEM_1523, COMPOSITE, ORIENTATION=ORI_1523
1.27292633, 3, CFRP, 0.
** SOURCE_TET=1115
*ELSET, ELSET=ELEM_1524
1524
*ORIENTATION, NAME=ORI_1524, SYSTEM=RECTANGULAR
12.02796477, 18.83703198, 207.44368196, 11.05647572, 17.85593487, 207.74971708
3, 0.
*SHELL SECTION, ELSET=ELEM_1524, COMPOSITE, ORIENTATION=ORI_1524
1.53178048, 3, CFRP, 0.
** SOURCE_TET=3514
*ELSET, ELSET=ELEM_1525
1525
*ORIENTATION, NAME=ORI_1525, SYSTEM=RECTANGULAR
10.50364947, 16.87272988, 207.98702622, 9.54043927, 15.87127796, 208.25031343
3, 0.
*SHELL SECTION, ELSET=ELEM_1525, COMPOSITE, ORIENTATION=ORI_1525
1.56591380, 3, CFRP, 0.
** SOURCE_TET=6403
*ELSET, ELSET=ELEM_1526
1526
*ORIENTATION, NAME=ORI_1526, SYSTEM=RECTANGULAR
-73.77773762, -35.42019007, 166.75936518, -72.87626278, -35.61123609, 167.83213940
3, 0.
*SHELL SECTION, ELSET=ELEM_1526, COMPOSITE, ORIENTATION=ORI_1526
1.27590609, 3, CFRP, 0.
** SOURCE_TET=6650
*ELSET, ELSET=ELEM_1527
1527
*ORIENTATION, NAME=ORI_1527, SYSTEM=RECTANGULAR
-80.81442148, -18.10690684, 165.30906261, -79.96933917, -18.50719439, 166.37000830
3, 0.
*SHELL SECTION, ELSET=ELEM_1527, COMPOSITE, ORIENTATION=ORI_1527
1.27424467, 3, CFRP, 0.
** SOURCE_TET=6041
*ELSET, ELSET=ELEM_1528
1528
*ORIENTATION, NAME=ORI_1528, SYSTEM=RECTANGULAR
-85.14878328, -21.05891135, 156.95017858, -84.40899250, -21.51518828, 158.06575958
3, 0.
*SHELL SECTION, ELSET=ELEM_1528, COMPOSITE, ORIENTATION=ORI_1528
1.26799190, 3, CFRP, 0.
** SOURCE_TET=7023
*ELSET, ELSET=ELEM_1529
1529
*ORIENTATION, NAME=ORI_1529, SYSTEM=RECTANGULAR
-82.16077242, -9.23701905, 165.62738027, -81.36372985, -9.70675228, 166.69699414
3, 0.
*SHELL SECTION, ELSET=ELEM_1529, COMPOSITE, ORIENTATION=ORI_1529
1.27441847, 3, CFRP, 0.
** SOURCE_TET=189
*ELSET, ELSET=ELEM_1530
1530
*ORIENTATION, NAME=ORI_1530, SYSTEM=RECTANGULAR
-21.06788825, 10.31059987, 207.20208243, -20.01224669, 9.42101095, 207.50908807
3, 0.
*SHELL SECTION, ELSET=ELEM_1530, COMPOSITE, ORIENTATION=ORI_1530
1.51157212, 3, CFRP, 0.
** SOURCE_TET=1023
*ELSET, ELSET=ELEM_1531
1531
*ORIENTATION, NAME=ORI_1531, SYSTEM=RECTANGULAR
-24.30236098, 10.65329821, 206.39764052, -23.22596839, 9.80796048, 206.75370669
3, 0.
*SHELL SECTION, ELSET=ELEM_1531, COMPOSITE, ORIENTATION=ORI_1531
1.46522808, 3, CFRP, 0.
** SOURCE_TET=575
*ELSET, ELSET=ELEM_1532
1532
*ORIENTATION, NAME=ORI_1532, SYSTEM=RECTANGULAR
-22.78406397, 11.70706740, 206.64688447, -21.74544190, 10.81279661, 206.99551601
3, 0.
*SHELL SECTION, ELSET=ELEM_1532, COMPOSITE, ORIENTATION=ORI_1532
1.47291076, 3, CFRP, 0.
** SOURCE_TET=1333
*ELSET, ELSET=ELEM_1533
1533
*ORIENTATION, NAME=ORI_1533, SYSTEM=RECTANGULAR
-11.89395899, -18.49319547, 207.53711001, -10.90408800, -17.52735904, 207.83260180
3, 0.
*SHELL SECTION, ELSET=ELEM_1533, COMPOSITE, ORIENTATION=ORI_1533
1.53714228, 3, CFRP, 0.
** SOURCE_TET=5568
*ELSET, ELSET=ELEM_1534
1534
*ORIENTATION, NAME=ORI_1534, SYSTEM=RECTANGULAR
-75.16008253, 18.53323457, 172.75013059, -74.48773162, 17.81483296, 173.76592751
3, 0.
*SHELL SECTION, ELSET=ELEM_1534, COMPOSITE, ORIENTATION=ORI_1534
1.28148973, 3, CFRP, 0.
** SOURCE_TET=2169
*ELSET, ELSET=ELEM_1535
1535
*ORIENTATION, NAME=ORI_1535, SYSTEM=RECTANGULAR
8.04722425, -12.80830731, -208.82677893, 8.78330762, -13.99546317, -208.60577613
3, 0.
*SHELL SECTION, ELSET=ELEM_1535, COMPOSITE, ORIENTATION=ORI_1535
1.68378389, 3, CFRP, 0.
** SOURCE_TET=2443
*ELSET, ELSET=ELEM_1536
1536
*ORIENTATION, NAME=ORI_1536, SYSTEM=RECTANGULAR
10.08067006, -9.16007002, -209.03257864, 11.12743436, -10.09017101, -208.83459719
3, 0.
*SHELL SECTION, ELSET=ELEM_1536, COMPOSITE, ORIENTATION=ORI_1536
1.68649507, 3, CFRP, 0.
** SOURCE_TET=1432
*ELSET, ELSET=ELEM_1537
1537
*ORIENTATION, NAME=ORI_1537, SYSTEM=RECTANGULAR
9.72221635, -11.69174250, -208.81285412, 10.66900196, -12.71839795, -208.59019837
3, 0.
*SHELL SECTION, ELSET=ELEM_1537, COMPOSITE, ORIENTATION=ORI_1537
1.68480420, 3, CFRP, 0.
** SOURCE_TET=763
*ELSET, ELSET=ELEM_1538
1538
*ORIENTATION, NAME=ORI_1538, SYSTEM=RECTANGULAR
6.76537329, 13.18802580, -208.87529605, 7.45359043, 14.40463052, -208.66028413
3, 0.
*SHELL SECTION, ELSET=ELEM_1538, COMPOSITE, ORIENTATION=ORI_1538
1.68448281, 3, CFRP, 0.
** SOURCE_TET=925
*ELSET, ELSET=ELEM_1539
1539
*ORIENTATION, NAME=ORI_1539, SYSTEM=RECTANGULAR
9.02923580, 10.02422353, -209.05369584, 10.00880980, 11.02583446, -208.86079604
3, 0.
*SHELL SECTION, ELSET=ELEM_1539, COMPOSITE, ORIENTATION=ORI_1539
1.68845618, 3, CFRP, 0.
** SOURCE_TET=1905
*ELSET, ELSET=ELEM_1540
1540
*ORIENTATION, NAME=ORI_1540, SYSTEM=RECTANGULAR
8.48870197, 12.08178780, -208.88877103, 9.29537394, 13.22312425, -208.67282785
3, 0.
*SHELL SECTION, ELSET=ELEM_1540, COMPOSITE, ORIENTATION=ORI_1540
1.68445349, 3, CFRP, 0.
** SOURCE_TET=6708
*ELSET, ELSET=ELEM_1541
1541
*ORIENTATION, NAME=ORI_1541, SYSTEM=RECTANGULAR
47.71341142, 12.11292810, -196.88487004, 48.83742325, 12.60575762, -196.18222043
3, 0.
*SHELL SECTION, ELSET=ELEM_1541, COMPOSITE, ORIENTATION=ORI_1541
1.35746658, 3, CFRP, 0.
** SOURCE_TET=6048
*ELSET, ELSET=ELEM_1542
1542
*ORIENTATION, NAME=ORI_1542, SYSTEM=RECTANGULAR
50.84271120, 15.99313902, -194.41196475, 51.90380676, 16.53575209, -193.65061905
3, 0.
*SHELL SECTION, ELSET=ELEM_1542, COMPOSITE, ORIENTATION=ORI_1542
1.34684741, 3, CFRP, 0.
** SOURCE_TET=5861
*ELSET, ELSET=ELEM_1543
1543
*ORIENTATION, NAME=ORI_1543, SYSTEM=RECTANGULAR
55.87315762, 14.20188764, -191.44622110, 56.91470677, 14.70243330, -190.63097303
3, 0.
*SHELL SECTION, ELSET=ELEM_1543, COMPOSITE, ORIENTATION=ORI_1543
1.32849967, 3, CFRP, 0.
** SOURCE_TET=3303
*ELSET, ELSET=ELEM_1544
1544
*ORIENTATION, NAME=ORI_1544, SYSTEM=RECTANGULAR
3.46770791, 14.75991496, -208.81991601, 3.73304653, 16.13122054, -208.59829371
3, 0.
*SHELL SECTION, ELSET=ELEM_1544, COMPOSITE, ORIENTATION=ORI_1544
1.68426263, 3, CFRP, 0.
** SOURCE_TET=702
*ELSET, ELSET=ELEM_1545
1545
*ORIENTATION, NAME=ORI_1545, SYSTEM=RECTANGULAR
-0.69013502, 13.66306114, -209.02408782, -0.69869164, 15.06318230, -208.82512171
3, 0.
*SHELL SECTION, ELSET=ELEM_1545, COMPOSITE, ORIENTATION=ORI_1545
1.68595028, 3, CFRP, 0.
** SOURCE_TET=2736
*ELSET, ELSET=ELEM_1546
1546
*ORIENTATION, NAME=ORI_1546, SYSTEM=RECTANGULAR
1.43957415, 15.24492010, -208.79478972, 1.56469276, 16.63546625, -208.56956376
3, 0.
*SHELL SECTION, ELSET=ELEM_1546, COMPOSITE, ORIENTATION=ORI_1546
1.68409717, 3, CFRP, 0.
** SOURCE_TET=6469
*ELSET, ELSET=ELEM_1547
1547
*ORIENTATION, NAME=ORI_1547, SYSTEM=RECTANGULAR
46.28952098, -9.55457133, -197.94242287, 47.52587256, -9.61463697, -197.25844416
3, 0.
*SHELL SECTION, ELSET=ELEM_1547, COMPOSITE, ORIENTATION=ORI_1547
1.36738050, 3, CFRP, 0.
** SOURCE_TET=5554
*ELSET, ELSET=ELEM_1548
1548
*ORIENTATION, NAME=ORI_1548, SYSTEM=RECTANGULAR
58.89830414, -13.54750976, -189.19002835, 60.02964623, -13.55826567, -188.34153004
3, 0.
*SHELL SECTION, ELSET=ELEM_1548, COMPOSITE, ORIENTATION=ORI_1548
1.32313204, 3, CFRP, 0.
** SOURCE_TET=6969
*ELSET, ELSET=ELEM_1549
1549
*ORIENTATION, NAME=ORI_1549, SYSTEM=RECTANGULAR
48.55177644, -13.80964263, -196.12685260, 49.76100816, -13.95092353, -195.40727054
3, 0.
*SHELL SECTION, ELSET=ELEM_1549, COMPOSITE, ORIENTATION=ORI_1549
1.35352349, 3, CFRP, 0.
** SOURCE_TET=7295
*ELSET, ELSET=ELEM_1550
1550
*ORIENTATION, NAME=ORI_1550, SYSTEM=RECTANGULAR
53.53545848, -16.10824705, -192.61328872, 54.68767674, -16.22823459, -191.80211915
3, 0.
*SHELL SECTION, ELSET=ELEM_1550, COMPOSITE, ORIENTATION=ORI_1550
1.34014666, 3, CFRP, 0.
** SOURCE_TET=5475
*ELSET, ELSET=ELEM_1551
1551
*ORIENTATION, NAME=ORI_1551, SYSTEM=RECTANGULAR
4.36588423, -14.14308449, -208.87776365, 4.80193182, -15.47080212, -208.66090337
3, 0.
*SHELL SECTION, ELSET=ELEM_1551, COMPOSITE, ORIENTATION=ORI_1551
1.68542314, 3, CFRP, 0.
** SOURCE_TET=449
*ELSET, ELSET=ELEM_1552
1552
*ORIENTATION, NAME=ORI_1552, SYSTEM=RECTANGULAR
0.66638237, -13.63190061, -209.03168568, 0.67658621, -15.03214482, -208.83366543
3, 0.
*SHELL SECTION, ELSET=ELEM_1552, COMPOSITE, ORIENTATION=ORI_1552
1.68826604, 3, CFRP, 0.
** SOURCE_TET=1194
*ELSET, ELSET=ELEM_1553
1553
*ORIENTATION, NAME=ORI_1553, SYSTEM=RECTANGULAR
2.35757369, -14.71546492, -208.86711235, 2.64989803, -16.08243935, -208.65280557
3, 0.
*SHELL SECTION, ELSET=ELEM_1553, COMPOSITE, ORIENTATION=ORI_1553
1.68535316, 3, CFRP, 0.
** SOURCE_TET=3867
*ELSET, ELSET=ELEM_1554
1554
*ORIENTATION, NAME=ORI_1554, SYSTEM=RECTANGULAR
8.91277198, -15.28538402, -208.40605733, 9.62968133, -16.47503490, -208.14002770
3, 0.
*SHELL SECTION, ELSET=ELEM_1554, COMPOSITE, ORIENTATION=ORI_1554
1.67000413, 3, CFRP, 0.
** SOURCE_TET=4258
*ELSET, ELSET=ELEM_1555
1555
*ORIENTATION, NAME=ORI_1555, SYSTEM=RECTANGULAR
7.81438142, -16.71608652, -208.24604679, 8.45154674, -17.94995688, -207.97849436
3, 0.
*SHELL SECTION, ELSET=ELEM_1555, COMPOSITE, ORIENTATION=ORI_1555
1.65477347, 3, CFRP, 0.
** SOURCE_TET=3421
*ELSET, ELSET=ELEM_1556
1556
*ORIENTATION, NAME=ORI_1556, SYSTEM=RECTANGULAR
5.54908659, -16.04109353, -208.52893111, 6.00153723, -17.35697522, -208.27645578
3, 0.
*SHELL SECTION, ELSET=ELEM_1556, COMPOSITE, ORIENTATION=ORI_1556
1.68165612, 3, CFRP, 0.
** SOURCE_TET=2219
*ELSET, ELSET=ELEM_1557
1557
*ORIENTATION, NAME=ORI_1557, SYSTEM=RECTANGULAR
4.94818996, 16.57303259, -208.47920929, 5.30762960, 17.91682321, -208.22419965
3, 0.
*SHELL SECTION, ELSET=ELEM_1557, COMPOSITE, ORIENTATION=ORI_1557
1.66402018, 3, CFRP, 0.
** SOURCE_TET=2406
*ELSET, ELSET=ELEM_1558
1558
*ORIENTATION, NAME=ORI_1558, SYSTEM=RECTANGULAR
6.80942308, 16.68451711, -208.34394692, 7.33422161, 17.97198439, -208.08507528
3, 0.
*SHELL SECTION, ELSET=ELEM_1558, COMPOSITE, ORIENTATION=ORI_1558
1.65319705, 3, CFRP, 0.
** SOURCE_TET=2183
*ELSET, ELSET=ELEM_1559
1559
*ORIENTATION, NAME=ORI_1559, SYSTEM=RECTANGULAR
7.49482296, 15.17379463, -208.53907658, 8.09213203, 16.43043516, -208.28594330
3, 0.
*SHELL SECTION, ELSET=ELEM_1559, COMPOSITE, ORIENTATION=ORI_1559
1.67437124, 3, CFRP, 0.
** SOURCE_TET=2505
*ELSET, ELSET=ELEM_1560
1560
*ORIENTATION, NAME=ORI_1560, SYSTEM=RECTANGULAR
33.46731750, -4.95925004, -204.05921620, 34.79145300, -5.05318905, -203.57152712
3, 0.
*SHELL SECTION, ELSET=ELEM_1560, COMPOSITE, ORIENTATION=ORI_1560
1.43810105, 3, CFRP, 0.
** SOURCE_TET=974
*ELSET, ELSET=ELEM_1561
1561
*ORIENTATION, NAME=ORI_1561, SYSTEM=RECTANGULAR
28.62060720, -4.29743581, -205.68952596, 29.96826690, -4.39349413, -205.27169091
3, 0.
*SHELL SECTION, ELSET=ELEM_1561, COMPOSITE, ORIENTATION=ORI_1561
1.48393214, 3, CFRP, 0.
** SOURCE_TET=1830
*ELSET, ELSET=ELEM_1562
1562
*ORIENTATION, NAME=ORI_1562, SYSTEM=RECTANGULAR
30.84703189, -5.74703835, -204.91964859, 32.17896247, -5.88954980, -204.46616054
3, 0.
*SHELL SECTION, ELSET=ELEM_1562, COMPOSITE, ORIENTATION=ORI_1562
1.45300496, 3, CFRP, 0.
** SOURCE_TET=864
*ELSET, ELSET=ELEM_1563
1563
*ORIENTATION, NAME=ORI_1563, SYSTEM=RECTANGULAR
32.32379836, 5.68190074, -204.42941764, 33.61461146, 6.01833030, -203.95971910
3, 0.
*SHELL SECTION, ELSET=ELEM_1563, COMPOSITE, ORIENTATION=ORI_1563
1.44467711, 3, CFRP, 0.
** SOURCE_TET=2356
*ELSET, ELSET=ELEM_1564
1564
*ORIENTATION, NAME=ORI_1564, SYSTEM=RECTANGULAR
27.91306286, 5.03744937, -205.87437867, 29.22341011, 5.37677983, -205.46468985
3, 0.
*SHELL SECTION, ELSET=ELEM_1564, COMPOSITE, ORIENTATION=ORI_1564
1.49293971, 3, CFRP, 0.
** SOURCE_TET=298
*ELSET, ELSET=ELEM_1565
1565
*ORIENTATION, NAME=ORI_1565, SYSTEM=RECTANGULAR
30.03032291, 6.45069090, -205.13383615, 31.31772419, 6.82878375, -204.68702105
3, 0.
*SHELL SECTION, ELSET=ELEM_1565, COMPOSITE, ORIENTATION=ORI_1565
1.47434032, 3, CFRP, 0.
** SOURCE_TET=1495
*ELSET, ELSET=ELEM_1566
1566
*ORIENTATION, NAME=ORI_1566, SYSTEM=RECTANGULAR
-12.42519902, 8.92069312, -208.78197611, -13.61957283, 9.64286620, -208.55407865
3, 0.
*SHELL SECTION, ELSET=ELEM_1566, COMPOSITE, ORIENTATION=ORI_1566
1.68501091, 3, CFRP, 0.
** SOURCE_TET=785
*ELSET, ELSET=ELEM_1567
1567
*ORIENTATION, NAME=ORI_1567, SYSTEM=RECTANGULAR
-13.38764794, 7.55029260, -208.78965791, -14.63922047, 8.16961067, -208.56602578
3, 0.
*SHELL SECTION, ELSET=ELEM_1567, COMPOSITE, ORIENTATION=ORI_1567
1.68484902, 3, CFRP, 0.
** SOURCE_TET=693
*ELSET, ELSET=ELEM_1568
1568
*ORIENTATION, NAME=ORI_1568, SYSTEM=RECTANGULAR
-9.19774350, -10.12238934, -209.02419724, -10.18145425, -11.11909606, -208.82699464
3, 0.
*SHELL SECTION, ELSET=ELEM_1568, COMPOSITE, ORIENTATION=ORI_1568
1.68826139, 3, CFRP, 0.
** SOURCE_TET=502
*ELSET, ELSET=ELEM_1569
1569
*ORIENTATION, NAME=ORI_1569, SYSTEM=RECTANGULAR
-11.74916756, -9.66546828, -208.81226998, -12.86726102, -10.50170949, -208.58739743
3, 0.
*SHELL SECTION, ELSET=ELEM_1569, COMPOSITE, ORIENTATION=ORI_1569
1.68519163, 3, CFRP, 0.
** SOURCE_TET=2541
*ELSET, ELSET=ELEM_1570
1570
*ORIENTATION, NAME=ORI_1570, SYSTEM=RECTANGULAR
-12.90261292, -7.88306047, -208.83051907, -14.10490785, -8.59461069, -208.61101242
3, 0.
*SHELL SECTION, ELSET=ELEM_1570, COMPOSITE, ORIENTATION=ORI_1570
1.68518615, 3, CFRP, 0.
** SOURCE_TET=3720
*ELSET, ELSET=ELEM_1571
1571
*ORIENTATION, NAME=ORI_1571, SYSTEM=RECTANGULAR
-12.27282770, -6.18810562, -209.02936328, -13.52337065, -6.81662865, -208.82662911
3, 0.
*SHELL SECTION, ELSET=ELEM_1571, COMPOSITE, ORIENTATION=ORI_1571
1.68665671, 3, CFRP, 0.
** SOURCE_TET=5907
*ELSET, ELSET=ELEM_1572
1572
*ORIENTATION, NAME=ORI_1572, SYSTEM=RECTANGULAR
-29.50398405, -89.89811483, -139.74644493, -29.20383283, -90.41366377, -138.46421307
3, 0.
*SHELL SECTION, ELSET=ELEM_1572, COMPOSITE, ORIENTATION=ORI_1572
1.26991272, 3, CFRP, 0.
** SOURCE_TET=6194
*ELSET, ELSET=ELEM_1573
1573
*ORIENTATION, NAME=ORI_1573, SYSTEM=RECTANGULAR
-18.16660456, -90.81297820, -145.62202054, -17.84328585, -91.34781138, -144.35339196
3, 0.
*SHELL SECTION, ELSET=ELEM_1573, COMPOSITE, ORIENTATION=ORI_1573
1.27335227, 3, CFRP, 0.
** SOURCE_TET=2288
*ELSET, ELSET=ELEM_1574
1574
*ORIENTATION, NAME=ORI_1574, SYSTEM=RECTANGULAR
-7.32649910, -94.33024950, -139.11846349, -6.90491647, -94.73355651, -137.83020438
3, 0.
*SHELL SECTION, ELSET=ELEM_1574, COMPOSITE, ORIENTATION=ORI_1574
1.26981390, 3, CFRP, 0.
** SOURCE_TET=7133
*ELSET, ELSET=ELEM_1575
1575
*ORIENTATION, NAME=ORI_1575, SYSTEM=RECTANGULAR
-1.41248652, -14.87975837, -208.84929566, -1.58607541, -16.26614389, -208.63065880
3, 0.
*SHELL SECTION, ELSET=ELEM_1575, COMPOSITE, ORIENTATION=ORI_1575
1.68367648, 3, CFRP, 0.
** SOURCE_TET=144
*ELSET, ELSET=ELEM_1576
1576
*ORIENTATION, NAME=ORI_1576, SYSTEM=RECTANGULAR
-3.18554456, -13.94098837, -208.95300481, -3.48919476, -15.30537063, -208.73792899
3, 0.
*SHELL SECTION, ELSET=ELEM_1576, COMPOSITE, ORIENTATION=ORI_1576
1.68430734, 3, CFRP, 0.
** SOURCE_TET=5792
*ELSET, ELSET=ELEM_1577
1577
*ORIENTATION, NAME=ORI_1577, SYSTEM=RECTANGULAR
-8.35260270, 94.31320223, -139.67199072, -8.83602851, 94.65086043, -138.38657778
3, 0.
*SHELL SECTION, ELSET=ELEM_1577, COMPOSITE, ORIENTATION=ORI_1577
1.26980782, 3, CFRP, 0.
** SOURCE_TET=6006
*ELSET, ELSET=ELEM_1578
1578
*ORIENTATION, NAME=ORI_1578, SYSTEM=RECTANGULAR
-17.76369786, 90.95498709, -145.82239966, -18.27630504, 91.32955032, -144.55870022
3, 0.
*SHELL SECTION, ELSET=ELEM_1578, COMPOSITE, ORIENTATION=ORI_1578
1.27346373, 3, CFRP, 0.
** SOURCE_TET=6886
*ELSET, ELSET=ELEM_1579
1579
*ORIENTATION, NAME=ORI_1579, SYSTEM=RECTANGULAR
-28.75536650, 89.58173045, -141.62708715, -29.31187601, 89.82977073, -140.35085316
3, 0.
*SHELL SECTION, ELSET=ELEM_1579, COMPOSITE, ORIENTATION=ORI_1579
1.27031958, 3, CFRP, 0.
** SOURCE_TET=7131
*ELSET, ELSET=ELEM_1580
1580
*ORIENTATION, NAME=ORI_1580, SYSTEM=RECTANGULAR
-2.73602485, 14.67381684, -208.85219877, -3.07545196, 16.02929256, -208.63431163
3, 0.
*SHELL SECTION, ELSET=ELEM_1580, COMPOSITE, ORIENTATION=ORI_1580
1.68379045, 3, CFRP, 0.
** SOURCE_TET=501
*ELSET, ELSET=ELEM_1581
1581
*ORIENTATION, NAME=ORI_1581, SYSTEM=RECTANGULAR
-4.67864094, 13.60612165, -208.94110993, -5.15492191, 14.92044518, -208.72731074
3, 0.
*SHELL SECTION, ELSET=ELEM_1581, COMPOSITE, ORIENTATION=ORI_1581
1.68433428, 3, CFRP, 0.
** SOURCE_TET=4133
*ELSET, ELSET=ELEM_1582
1582
*ORIENTATION, NAME=ORI_1582, SYSTEM=RECTANGULAR
-93.34143307, 12.36771401, -140.10329972, -93.76084592, 11.97730745, -138.81036678
3, 0.
*SHELL SECTION, ELSET=ELEM_1582, COMPOSITE, ORIENTATION=ORI_1582
1.26990902, 3, CFRP, 0.
** SOURCE_TET=6460
*ELSET, ELSET=ELEM_1583
1583
*ORIENTATION, NAME=ORI_1583, SYSTEM=RECTANGULAR
-93.22899560, -17.52417647, -138.88206421, -93.51640150, -18.04699755, -137.59985675
3, 0.
*SHELL SECTION, ELSET=ELEM_1583, COMPOSITE, ORIENTATION=ORI_1583
1.26966095, 3, CFRP, 0.
** SOURCE_TET=6008
*ELSET, ELSET=ELEM_1584
1584
*ORIENTATION, NAME=ORI_1584, SYSTEM=RECTANGULAR
-92.15802397, 1.56124558, -146.75512819, -92.63840162, 1.13214329, -145.49611725
3, 0.
*SHELL SECTION, ELSET=ELEM_1584, COMPOSITE, ORIENTATION=ORI_1584
1.27196634, 3, CFRP, 0.
** SOURCE_TET=5263
*ELSET, ELSET=ELEM_1585
1585
*ORIENTATION, NAME=ORI_1585, SYSTEM=RECTANGULAR
-92.13298351, -10.28104205, -145.63479485, -92.50921718, -10.76303767, -144.35959743
3, 0.
*SHELL SECTION, ELSET=ELEM_1585, COMPOSITE, ORIENTATION=ORI_1585
1.27274120, 3, CFRP, 0.
** SOURCE_TET=3238
*ELSET, ELSET=ELEM_1586
1586
*ORIENTATION, NAME=ORI_1586, SYSTEM=RECTANGULAR
20.60022637, -3.96676594, -207.74461918, 21.96379587, -4.18062139, -207.43648926
3, 0.
*SHELL SECTION, ELSET=ELEM_1586, COMPOSITE, ORIENTATION=ORI_1586
1.58709431, 3, CFRP, 0.
** SOURCE_TET=2844
*ELSET, ELSET=ELEM_1587
1587
*ORIENTATION, NAME=ORI_1587, SYSTEM=RECTANGULAR
19.11016385, -5.40313835, -207.98224024, 20.45380560, -5.73058199, -207.68659264
3, 0.
*SHELL SECTION, ELSET=ELEM_1587, COMPOSITE, ORIENTATION=ORI_1587
1.62622285, 3, CFRP, 0.
** SOURCE_TET=2297
*ELSET, ELSET=ELEM_1588
1588
*ORIENTATION, NAME=ORI_1588, SYSTEM=RECTANGULAR
16.48768167, -3.11581760, -208.56929029, 17.85601716, -3.37098927, -208.31919949
3, 0.
*SHELL SECTION, ELSET=ELEM_1588, COMPOSITE, ORIENTATION=ORI_1588
1.68181169, 3, CFRP, 0.
** SOURCE_TET=3253
*ELSET, ELSET=ELEM_1589
1589
*ORIENTATION, NAME=ORI_1589, SYSTEM=RECTANGULAR
17.38183607, -4.70085839, -208.34876304, 18.73162200, -5.02639560, -208.08024216
3, 0.
*SHELL SECTION, ELSET=ELEM_1589, COMPOSITE, ORIENTATION=ORI_1589
1.65999365, 3, CFRP, 0.
** SOURCE_TET=1985
*ELSET, ELSET=ELEM_1590
1590
*ORIENTATION, NAME=ORI_1590, SYSTEM=RECTANGULAR
20.48960278, 5.14591331, -207.71006159, 21.80814360, 5.55467695, -207.40287699
3, 0.
*SHELL SECTION, ELSET=ELEM_1590, COMPOSITE, ORIENTATION=ORI_1590
1.58439243, 3, CFRP, 0.
** SOURCE_TET=1706
*ELSET, ELSET=ELEM_1591
1591
*ORIENTATION, NAME=ORI_1591, SYSTEM=RECTANGULAR
18.68837790, 6.30600608, -208.00838231, 19.97758440, 6.80789946, -207.71504016
3, 0.
*SHELL SECTION, ELSET=ELEM_1591, COMPOSITE, ORIENTATION=ORI_1591
1.62983584, 3, CFRP, 0.
** SOURCE_TET=2255
*ELSET, ELSET=ELEM_1592
1592
*ORIENTATION, NAME=ORI_1592, SYSTEM=RECTANGULAR
16.78975868, 4.78402753, -208.44347131, 18.10593165, 5.23319723, -208.18669261
3, 0.
*SHELL SECTION, ELSET=ELEM_1592, COMPOSITE, ORIENTATION=ORI_1592
1.67277515, 3, CFRP, 0.
** SOURCE_TET=6606
*ELSET, ELSET=ELEM_1593
1593
*ORIENTATION, NAME=ORI_1593, SYSTEM=RECTANGULAR
45.87736580, 83.31632895, -138.48181413, 45.65837791, 83.85667434, -137.19337664
3, 0.
*SHELL SECTION, ELSET=ELEM_1593, COMPOSITE, ORIENTATION=ORI_1593
1.26958430, 3, CFRP, 0.
** SOURCE_TET=4417
*ELSET, ELSET=ELEM_1594
1594
*ORIENTATION, NAME=ORI_1594, SYSTEM=RECTANGULAR
63.02078835, 70.50463922, -139.15252821, 62.96475534, 71.10968386, -137.87550774
3, 0.
*SHELL SECTION, ELSET=ELEM_1594, COMPOSITE, ORIENTATION=ORI_1594
1.26982951, 3, CFRP, 0.
** SOURCE_TET=3957
*ELSET, ELSET=ELEM_1595
1595
*ORIENTATION, NAME=ORI_1595, SYSTEM=RECTANGULAR
54.20109680, 74.86706358, -145.63934108, 54.14238725, 75.50498258, -144.37854271
3, 0.
*SHELL SECTION, ELSET=ELEM_1595, COMPOSITE, ORIENTATION=ORI_1595
1.27340412, 3, CFRP, 0.
** SOURCE_TET=3044
*ELSET, ELSET=ELEM_1596
1596
*ORIENTATION, NAME=ORI_1596, SYSTEM=RECTANGULAR
67.77049717, -66.64972338, -138.03173038, 68.33910383, -66.56782598, -136.73945360
3, 0.
*SHELL SECTION, ELSET=ELEM_1596, COMPOSITE, ORIENTATION=ORI_1596
1.26966417, 3, CFRP, 0.
** SOURCE_TET=4582
*ELSET, ELSET=ELEM_1597
1597
*ORIENTATION, NAME=ORI_1597, SYSTEM=RECTANGULAR
60.21509533, -71.08676595, -144.60922877, 60.81561850, -71.12983847, -143.32957387
3, 0.
*SHELL SECTION, ELSET=ELEM_1597, COMPOSITE, ORIENTATION=ORI_1597
1.27230108, 3, CFRP, 0.
** SOURCE_TET=2192
*ELSET, ELSET=ELEM_1598
1598
*ORIENTATION, NAME=ORI_1598, SYSTEM=RECTANGULAR
45.38217507, -83.58046193, -138.10719440, 45.92376883, -83.62036207, -136.80140569
3, 0.
*SHELL SECTION, ELSET=ELEM_1598, COMPOSITE, ORIENTATION=ORI_1598
1.26961207, 3, CFRP, 0.
** SOURCE_TET=7408
*ELSET, ELSET=ELEM_1599
1599
*ORIENTATION, NAME=ORI_1599, SYSTEM=RECTANGULAR
52.62637317, -77.42357252, -143.78860003, 53.23333241, -77.52665751, -142.51542527
3, 0.
*SHELL SECTION, ELSET=ELEM_1599, COMPOSITE, ORIENTATION=ORI_1599
1.27204835, 3, CFRP, 0.
** SOURCE_TET=3721
*ELSET, ELSET=ELEM_1600
1600
*ORIENTATION, NAME=ORI_1600, SYSTEM=RECTANGULAR
-75.44293806, 52.77475346, -147.09199010, -76.07440676, 52.69510775, -145.82909508
3, 0.
*SHELL SECTION, ELSET=ELEM_1600, COMPOSITE, ORIENTATION=ORI_1600
1.27301252, 3, CFRP, 0.
** SOURCE_TET=6433
*ELSET, ELSET=ELEM_1601
1601
*ORIENTATION, NAME=ORI_1601, SYSTEM=RECTANGULAR
-81.43345253, 43.73103361, -146.31620269, -82.05165821, 43.59123532, -145.05197242
3, 0.
*SHELL SECTION, ELSET=ELEM_1601, COMPOSITE, ORIENTATION=ORI_1601
1.27277708, 3, CFRP, 0.
** SOURCE_TET=3156
*ELSET, ELSET=ELEM_1602
1602
*ORIENTATION, NAME=ORI_1602, SYSTEM=RECTANGULAR
-87.41433262, 37.10999656, -138.72605685, -87.89860899, 36.82844918, -137.42751634
3, 0.
*SHELL SECTION, ELSET=ELEM_1602, COMPOSITE, ORIENTATION=ORI_1602
1.26968706, 3, CFRP, 0.
** SOURCE_TET=6523
*ELSET, ELSET=ELEM_1603
1603
*ORIENTATION, NAME=ORI_1603, SYSTEM=RECTANGULAR
-73.64411800, 59.90499766, -138.80271739, -74.22548093, 59.79570049, -137.51816639
3, 0.
*SHELL SECTION, ELSET=ELEM_1603, COMPOSITE, ORIENTATION=ORI_1603
1.27062559, 3, CFRP, 0.
** SOURCE_TET=6175
*ELSET, ELSET=ELEM_1604
1604
*ORIENTATION, NAME=ORI_1604, SYSTEM=RECTANGULAR
-86.71780776, -38.57578770, -138.71959091, -86.86626243, -39.14412774, -137.43314200
3, 0.
*SHELL SECTION, ELSET=ELEM_1604, COMPOSITE, ORIENTATION=ORI_1604
1.27015269, 3, CFRP, 0.
** SOURCE_TET=4779
*ELSET, ELSET=ELEM_1605
1605
*ORIENTATION, NAME=ORI_1605, SYSTEM=RECTANGULAR
-79.45167115, -47.75329001, -145.34415299, -79.62167035, -48.36100994, -144.07853979
3, 0.
*SHELL SECTION, ELSET=ELEM_1605, COMPOSITE, ORIENTATION=ORI_1605
1.27193093, 3, CFRP, 0.
** SOURCE_TET=5828
*ELSET, ELSET=ELEM_1606
1606
*ORIENTATION, NAME=ORI_1606, SYSTEM=RECTANGULAR
-74.73352374, -57.82048635, -139.78318567, -74.76507893, -58.42208669, -138.50370089
3, 0.
*SHELL SECTION, ELSET=ELEM_1606, COMPOSITE, ORIENTATION=ORI_1606
1.26953065, 3, CFRP, 0.
** SOURCE_TET=544
*ELSET, ELSET=ELEM_1607
1607
*ORIENTATION, NAME=ORI_1607, SYSTEM=RECTANGULAR
-1.16011646, -17.18653830, -208.48527899, -1.28731794, -18.57222223, -208.23289077
3, 0.
*SHELL SECTION, ELSET=ELEM_1607, COMPOSITE, ORIENTATION=ORI_1607
1.67465580, 3, CFRP, 0.
** SOURCE_TET=1958
*ELSET, ELSET=ELEM_1608
1608
*ORIENTATION, NAME=ORI_1608, SYSTEM=RECTANGULAR
0.79796348, -18.02190262, -208.33950530, 0.89651260, -19.40739413, -208.07360806
3, 0.
*SHELL SECTION, ELSET=ELEM_1608, COMPOSITE, ORIENTATION=ORI_1608
1.64775479, 3, CFRP, 0.
** SOURCE_TET=1550
*ELSET, ELSET=ELEM_1609
1609
*ORIENTATION, NAME=ORI_1609, SYSTEM=RECTANGULAR
2.28363459, -16.83008404, -208.53562562, 2.53976201, -18.19775882, -208.28291147
3, 0.
*SHELL SECTION, ELSET=ELEM_1609, COMPOSITE, ORIENTATION=ORI_1609
1.68162787, 3, CFRP, 0.
** SOURCE_TET=2031
*ELSET, ELSET=ELEM_1610
1610
*ORIENTATION, NAME=ORI_1610, SYSTEM=RECTANGULAR
-3.02028288, -18.46765613, -208.21328024, -3.23354946, -19.83828879, -207.93781069
3, 0.
*SHELL SECTION, ELSET=ELEM_1610, COMPOSITE, ORIENTATION=ORI_1610
1.64435315, 3, CFRP, 0.
** SOURCE_TET=3445
*ELSET, ELSET=ELEM_1611
1611
*ORIENTATION, NAME=ORI_1611, SYSTEM=RECTANGULAR
-4.68407603, -17.62394772, -208.30748768, -4.99942101, -18.97573893, -208.03689930
3, 0.
*SHELL SECTION, ELSET=ELEM_1611, COMPOSITE, ORIENTATION=ORI_1611
1.65274966, 3, CFRP, 0.
** SOURCE_TET=1204
*ELSET, ELSET=ELEM_1612
1612
*ORIENTATION, NAME=ORI_1612, SYSTEM=RECTANGULAR
-4.59757924, -15.40183042, -208.68393248, -4.95440868, -16.75015156, -208.45004606
3, 0.
*SHELL SECTION, ELSET=ELEM_1612, COMPOSITE, ORIENTATION=ORI_1612
1.68239069, 3, CFRP, 0.
** SOURCE_TET=7120
*ELSET, ELSET=ELEM_1613
1613
*ORIENTATION, NAME=ORI_1613, SYSTEM=RECTANGULAR
-2.49143533, 17.09027291, -208.47478680, -2.79554180, 18.44804002, -208.22182884
3, 0.
*SHELL SECTION, ELSET=ELEM_1613, COMPOSITE, ORIENTATION=ORI_1613
1.67554522, 3, CFRP, 0.
** SOURCE_TET=2212
*ELSET, ELSET=ELEM_1614
1614
*ORIENTATION, NAME=ORI_1614, SYSTEM=RECTANGULAR
-0.56645333, 18.43378623, -208.26293709, -0.65090729, 19.81959892, -207.99388184
3, 0.
*SHELL SECTION, ELSET=ELEM_1614, COMPOSITE, ORIENTATION=ORI_1614
1.64431918, 3, CFRP, 0.
** SOURCE_TET=2053
*ELSET, ELSET=ELEM_1615
1615
*ORIENTATION, NAME=ORI_1615, SYSTEM=RECTANGULAR
1.27505360, 17.62799773, -208.40103139, 1.36244347, 19.01540799, -208.14130892
3, 0.
*SHELL SECTION, ELSET=ELEM_1615, COMPOSITE, ORIENTATION=ORI_1615
1.68061733, 3, CFRP, 0.
** SOURCE_TET=1399
*ELSET, ELSET=ELEM_1616
1616
*ORIENTATION, NAME=ORI_1616, SYSTEM=RECTANGULAR
-4.35242956, 18.25600759, -208.20086316, -4.74926535, 19.58529115, -207.92604215
3, 0.
*SHELL SECTION, ELSET=ELEM_1616, COMPOSITE, ORIENTATION=ORI_1616
1.64528060, 3, CFRP, 0.
** SOURCE_TET=2531
*ELSET, ELSET=ELEM_1617
1617
*ORIENTATION, NAME=ORI_1617, SYSTEM=RECTANGULAR
-6.37679859, 17.26014082, -208.27048540, -6.89072525, 18.54979713, -208.00091909
3, 0.
*SHELL SECTION, ELSET=ELEM_1617, COMPOSITE, ORIENTATION=ORI_1617
1.65189719, 3, CFRP, 0.
** SOURCE_TET=2120
*ELSET, ELSET=ELEM_1618
1618
*ORIENTATION, NAME=ORI_1618, SYSTEM=RECTANGULAR
-6.46046792, 15.02766763, -208.63183107, -7.01516864, 16.30575941, -208.38936769
3, 0.
*SHELL SECTION, ELSET=ELEM_1618, COMPOSITE, ORIENTATION=ORI_1618
1.68222857, 3, CFRP, 0.
** SOURCE_TET=3962
*ELSET, ELSET=ELEM_1619
1619
*ORIENTATION, NAME=ORI_1619, SYSTEM=RECTANGULAR
81.93194912, 24.95669702, -160.05200687, 82.48172220, 25.50178524, -158.86852540
3, 0.
*SHELL SECTION, ELSET=ELEM_1619, COMPOSITE, ORIENTATION=ORI_1619
1.28151858, 3, CFRP, 0.
** SOURCE_TET=2890
*ELSET, ELSET=ELEM_1620
1620
*ORIENTATION, NAME=ORI_1620, SYSTEM=RECTANGULAR
74.79857107, 30.22341109, -167.88270097, 75.39969427, 30.83726275, -166.75938576
3, 0.
*SHELL SECTION, ELSET=ELEM_1620, COMPOSITE, ORIENTATION=ORI_1620
1.28710079, 3, CFRP, 0.
** SOURCE_TET=4971
*ELSET, ELSET=ELEM_1621
1621
*ORIENTATION, NAME=ORI_1621, SYSTEM=RECTANGULAR
69.76168255, 25.85990461, -176.00625262, 70.49108042, 26.46739068, -174.95794950
3, 0.
*SHELL SECTION, ELSET=ELEM_1621, COMPOSITE, ORIENTATION=ORI_1621
1.29837942, 3, CFRP, 0.
** SOURCE_TET=5055
*ELSET, ELSET=ELEM_1622
1622
*ORIENTATION, NAME=ORI_1622, SYSTEM=RECTANGULAR
70.75066410, 18.94899041, -177.53687568, 71.53810756, 19.46245927, -176.48033296
3, 0.
*SHELL SECTION, ELSET=ELEM_1622, COMPOSITE, ORIENTATION=ORI_1622
1.29876804, 3, CFRP, 0.
** SOURCE_TET=5908
*ELSET, ELSET=ELEM_1623
1623
*ORIENTATION, NAME=ORI_1623, SYSTEM=RECTANGULAR
70.46181152, -17.10281612, -178.24000023, 71.42908897, -17.01397029, -177.21214774
3, 0.
*SHELL SECTION, ELSET=ELEM_1623, COMPOSITE, ORIENTATION=ORI_1623
1.29974544, 3, CFRP, 0.
** SOURCE_TET=4688
*ELSET, ELSET=ELEM_1624
1624
*ORIENTATION, NAME=ORI_1624, SYSTEM=RECTANGULAR
83.16704945, -23.62870519, -158.50726086, 83.90784172, -23.45165908, -157.31567306
3, 0.
*SHELL SECTION, ELSET=ELEM_1624, COMPOSITE, ORIENTATION=ORI_1624
1.28077984, 3, CFRP, 0.
** SOURCE_TET=4536
*ELSET, ELSET=ELEM_1625
1625
*ORIENTATION, NAME=ORI_1625, SYSTEM=RECTANGULAR
76.75288743, -28.49105444, -166.29622297, 77.57580724, -28.41121702, -165.14886559
3, 0.
*SHELL SECTION, ELSET=ELEM_1625, COMPOSITE, ORIENTATION=ORI_1625
1.28563881, 3, CFRP, 0.
** SOURCE_TET=7003
*ELSET, ELSET=ELEM_1626
1626
*ORIENTATION, NAME=ORI_1626, SYSTEM=RECTANGULAR
72.21385961, -24.43860670, -174.12176467, 73.13484956, -24.40182032, -173.04918633
3, 0.
*SHELL SECTION, ELSET=ELEM_1626, COMPOSITE, ORIENTATION=ORI_1626
1.29188704, 3, CFRP, 0.
** SOURCE_TET=2782
*ELSET, ELSET=ELEM_1627
1627
*ORIENTATION, NAME=ORI_1627, SYSTEM=RECTANGULAR
12.34849511, -8.37046575, -208.85459810, 13.49013605, -9.17594478, -208.63582996
3, 0.
*SHELL SECTION, ELSET=ELEM_1627, COMPOSITE, ORIENTATION=ORI_1627
1.68512559, 3, CFRP, 0.
** SOURCE_TET=4024
*ELSET, ELSET=ELEM_1628
1628
*ORIENTATION, NAME=ORI_1628, SYSTEM=RECTANGULAR
12.58350729, -5.83402523, -209.00629584, 13.85879114, -6.40724493, -208.79399820
3, 0.
*SHELL SECTION, ELSET=ELEM_1628, COMPOSITE, ORIENTATION=ORI_1628
1.68614137, 3, CFRP, 0.
** SOURCE_TET=2096
*ELSET, ELSET=ELEM_1629
1629
*ORIENTATION, NAME=ORI_1629, SYSTEM=RECTANGULAR
13.82928200, -10.28518354, -208.47980531, 14.98027217, -11.06682448, -208.22631159
3, 0.
*SHELL SECTION, ELSET=ELEM_1629, COMPOSITE, ORIENTATION=ORI_1629
1.67492533, 3, CFRP, 0.
** SOURCE_TET=1901
*ELSET, ELSET=ELEM_1630
1630
*ORIENTATION, NAME=ORI_1630, SYSTEM=RECTANGULAR
13.30360516, -12.55990550, -208.29110460, 14.33746480, -13.48703520, -208.02358871
3, 0.
*SHELL SECTION, ELSET=ELEM_1630, COMPOSITE, ORIENTATION=ORI_1630
1.64245284, 3, CFRP, 0.
** SOURCE_TET=715
*ELSET, ELSET=ELEM_1631
1631
*ORIENTATION, NAME=ORI_1631, SYSTEM=RECTANGULAR
11.42332514, -13.17930436, -208.44637290, 12.38598363, -14.18316573, -208.19034364
3, 0.
*SHELL SECTION, ELSET=ELEM_1631, COMPOSITE, ORIENTATION=ORI_1631
1.65860748, 3, CFRP, 0.
** SOURCE_TET=1863
*ELSET, ELSET=ELEM_1632
1632
*ORIENTATION, NAME=ORI_1632, SYSTEM=RECTANGULAR
11.36859633, 9.37277697, -208.88436883, 12.47449945, 10.22697703, -208.66683593
3, 0.
*SHELL SECTION, ELSET=ELEM_1632, COMPOSITE, ORIENTATION=ORI_1632
1.68544698, 3, CFRP, 0.
** SOURCE_TET=3221
*ELSET, ELSET=ELEM_1633
1633
*ORIENTATION, NAME=ORI_1633, SYSTEM=RECTANGULAR
12.41480044, 7.39290327, -208.92739790, 13.61280107, 8.11385659, -208.71521684
3, 0.
*SHELL SECTION, ELSET=ELEM_1633, COMPOSITE, ORIENTATION=ORI_1633
1.68568540, 3, CFRP, 0.
** SOURCE_TET=2088
*ELSET, ELSET=ELEM_1634
1634
*ORIENTATION, NAME=ORI_1634, SYSTEM=RECTANGULAR
11.60786021, 5.33667765, -209.14967378, 12.86627382, 5.95503748, -208.96521161
3, 0.
*SHELL SECTION, ELSET=ELEM_1634, COMPOSITE, ORIENTATION=ORI_1634
1.68751490, 3, CFRP, 0.
** SOURCE_TET=1294
*ELSET, ELSET=ELEM_1635
1635
*ORIENTATION, NAME=ORI_1635, SYSTEM=RECTANGULAR
12.78246754, 11.16744182, -208.52646606, 13.83497116, 12.07842003, -208.27675657
3, 0.
*SHELL SECTION, ELSET=ELEM_1635, COMPOSITE, ORIENTATION=ORI_1635
1.67997193, 3, CFRP, 0.
** SOURCE_TET=1877
*ELSET, ELSET=ELEM_1636
1636
*ORIENTATION, NAME=ORI_1636, SYSTEM=RECTANGULAR
11.94284510, 13.16803127, -208.38506270, 12.83387701, 14.23475793, -208.12399494
3, 0.
*SHELL SECTION, ELSET=ELEM_1636, COMPOSITE, ORIENTATION=ORI_1636
1.67355263, 3, CFRP, 0.
** SOURCE_TET=2702
*ELSET, ELSET=ELEM_1637
1637
*ORIENTATION, NAME=ORI_1637, SYSTEM=RECTANGULAR
9.97727056, 13.46257309, -208.57338300, 10.79180323, 14.59159912, -208.32471304
3, 0.
*SHELL SECTION, ELSET=ELEM_1637, COMPOSITE, ORIENTATION=ORI_1637
1.68229818, 3, CFRP, 0.
** SOURCE_TET=476
*ELSET, ELSET=ELEM_1638
1638
*ORIENTATION, NAME=ORI_1638, SYSTEM=RECTANGULAR
-9.65628922, 11.27044689, -208.87053992, -10.55465888, 12.34093177, -208.65375879
3, 0.
*SHELL SECTION, ELSET=ELEM_1638, COMPOSITE, ORIENTATION=ORI_1638
1.68534863, 3, CFRP, 0.
** SOURCE_TET=249
*ELSET, ELSET=ELEM_1639
1639
*ORIENTATION, NAME=ORI_1639, SYSTEM=RECTANGULAR
-7.98449914, 12.07400243, -208.92528768, -8.77565389, 13.22582977, -208.70764588
3, 0.
*SHELL SECTION, ELSET=ELEM_1639, COMPOSITE, ORIENTATION=ORI_1639
1.68572664, 3, CFRP, 0.
** SOURCE_TET=532
*ELSET, ELSET=ELEM_1640
1640
*ORIENTATION, NAME=ORI_1640, SYSTEM=RECTANGULAR
-8.35355908, -12.31285008, -208.86152812, -9.16794614, -13.44828010, -208.64341718
3, 0.
*SHELL SECTION, ELSET=ELEM_1640, COMPOSITE, ORIENTATION=ORI_1640
1.68400002, 3, CFRP, 0.
** SOURCE_TET=889
*ELSET, ELSET=ELEM_1641
1641
*ORIENTATION, NAME=ORI_1641, SYSTEM=RECTANGULAR
-6.30647644, -12.75409751, -208.96837858, -6.92085542, -14.01000358, -208.75568536
3, 0.
*SHELL SECTION, ELSET=ELEM_1641, COMPOSITE, ORIENTATION=ORI_1641
1.68470550, 3, CFRP, 0.
** SOURCE_TET=2460
*ELSET, ELSET=ELEM_1642
1642
*ORIENTATION, NAME=ORI_1642, SYSTEM=RECTANGULAR
16.01860264, -9.91314360, -208.18401160, 17.21716987, -10.61159583, -207.90905511
3, 0.
*SHELL SECTION, ELSET=ELEM_1642, COMPOSITE, ORIENTATION=ORI_1642
1.64361835, 3, CFRP, 0.
** SOURCE_TET=2017
*ELSET, ELSET=ELEM_1643
1643
*ORIENTATION, NAME=ORI_1643, SYSTEM=RECTANGULAR
16.92565176, -8.08127497, -208.20600651, 18.17765077, -8.67985708, -207.93361353
3, 0.
*SHELL SECTION, ELSET=ELEM_1643, COMPOSITE, ORIENTATION=ORI_1643
1.64596391, 3, CFRP, 0.
** SOURCE_TET=3106
*ELSET, ELSET=ELEM_1644
1644
*ORIENTATION, NAME=ORI_1644, SYSTEM=RECTANGULAR
14.26858379, -5.33151310, -208.80843178, 15.57704865, -5.82328225, -208.59376272
3, 0.
*SHELL SECTION, ELSET=ELEM_1644, COMPOSITE, ORIENTATION=ORI_1644
1.68467617, 3, CFRP, 0.
** SOURCE_TET=1806
*ELSET, ELSET=ELEM_1645
1645
*ORIENTATION, NAME=ORI_1645, SYSTEM=RECTANGULAR
16.04519553, -6.46440407, -208.48060478, 17.34209608, -6.96696618, -208.22471362
3, 0.
*SHELL SECTION, ELSET=ELEM_1645, COMPOSITE, ORIENTATION=ORI_1645
1.68243909, 3, CFRP, 0.
** SOURCE_TET=1630
*ELSET, ELSET=ELEM_1646
1646
*ORIENTATION, NAME=ORI_1646, SYSTEM=RECTANGULAR
17.40128850, -11.69241403, -207.75752309, 18.58791921, -12.39908220, -207.45333951
3, 0.
*SHELL SECTION, ELSET=ELEM_1646, COMPOSITE, ORIENTATION=ORI_1646
1.58703685, 3, CFRP, 0.
** SOURCE_TET=2055
*ELSET, ELSET=ELEM_1647
1647
*ORIENTATION, NAME=ORI_1647, SYSTEM=RECTANGULAR
16.58070708, -13.70250211, -207.64025942, 17.66165154, -14.55817114, -207.32499828
3, 0.
*SHELL SECTION, ELSET=ELEM_1647, COMPOSITE, ORIENTATION=ORI_1647
1.59090519, 3, CFRP, 0.
** SOURCE_TET=3074
*ELSET, ELSET=ELEM_1648
1648
*ORIENTATION, NAME=ORI_1648, SYSTEM=RECTANGULAR
14.61425829, -14.20615712, -207.88197100, 15.64036615, -15.13304574, -207.58535650
3, 0.
*SHELL SECTION, ELSET=ELEM_1648, COMPOSITE, ORIENTATION=ORI_1648
1.60740077, 3, CFRP, 0.
** SOURCE_TET=3479
*ELSET, ELSET=ELEM_1649
1649
*ORIENTATION, NAME=ORI_1649, SYSTEM=RECTANGULAR
19.45010669, -11.27641112, -207.42408985, 20.66806599, -11.91561195, -207.09546021
3, 0.
*SHELL SECTION, ELSET=ELEM_1649, COMPOSITE, ORIENTATION=ORI_1649
1.56672168, 3, CFRP, 0.
** SOURCE_TET=2235
*ELSET, ELSET=ELEM_1650
1650
*ORIENTATION, NAME=ORI_1650, SYSTEM=RECTANGULAR
20.20854138, -9.16427976, -207.48638656, 21.47124128, -9.71290769, -207.16297296
3, 0.
*SHELL SECTION, ELSET=ELEM_1650, COMPOSITE, ORIENTATION=ORI_1650
1.57107115, 3, CFRP, 0.
** SOURCE_TET=1024
*ELSET, ELSET=ELEM_1651
1651
*ORIENTATION, NAME=ORI_1651, SYSTEM=RECTANGULAR
19.07337197, -7.74802615, -207.84697362, 20.35180298, -8.26967235, -207.54119689
3, 0.
*SHELL SECTION, ELSET=ELEM_1651, COMPOSITE, ORIENTATION=ORI_1651
1.59359765, 3, CFRP, 0.
** SOURCE_TET=1009
*ELSET, ELSET=ELEM_1652
1652
*ORIENTATION, NAME=ORI_1652, SYSTEM=RECTANGULAR
17.91190764, -15.40240309, -207.14728914, 18.98136399, -16.26155266, -206.80359578
3, 0.
*SHELL SECTION, ELSET=ELEM_1652, COMPOSITE, ORIENTATION=ORI_1652
1.56245267, 3, CFRP, 0.
** SOURCE_TET=1548
*ELSET, ELSET=ELEM_1653
1653
*ORIENTATION, NAME=ORI_1653, SYSTEM=RECTANGULAR
20.22879142, -15.00442902, -206.74929864, 21.38487329, -15.73172236, -206.38253019
3, 0.
*SHELL SECTION, ELSET=ELEM_1653, COMPOSITE, ORIENTATION=ORI_1653
1.53514779, 3, CFRP, 0.
** SOURCE_TET=2742
*ELSET, ELSET=ELEM_1654
1654
*ORIENTATION, NAME=ORI_1654, SYSTEM=RECTANGULAR
20.94210953, -12.88936605, -206.90756858, 22.14480753, -13.54119999, -206.54891828
3, 0.
*SHELL SECTION, ELSET=ELEM_1654, COMPOSITE, ORIENTATION=ORI_1654
1.54152060, 3, CFRP, 0.
** SOURCE_TET=194
*ELSET, ELSET=ELEM_1655
1655
*ORIENTATION, NAME=ORI_1655, SYSTEM=RECTANGULAR
17.21801721, -17.60530768, -206.89719285, 18.22781051, -18.52913805, -206.54102581
3, 0.
*SHELL SECTION, ELSET=ELEM_1655, COMPOSITE, ORIENTATION=ORI_1655
1.55011761, 3, CFRP, 0.
** SOURCE_TET=70
*ELSET, ELSET=ELEM_1656
1656
*ORIENTATION, NAME=ORI_1656, SYSTEM=RECTANGULAR
15.44043306, -18.01233287, -207.12665765, 16.40046804, -18.99044470, -206.77790260
3, 0.
*SHELL SECTION, ELSET=ELEM_1656, COMPOSITE, ORIENTATION=ORI_1656
1.56112385, 3, CFRP, 0.
** SOURCE_TET=1533
*ELSET, ELSET=ELEM_1657
1657
*ORIENTATION, NAME=ORI_1657, SYSTEM=RECTANGULAR
14.16808043, -16.31446877, -207.62368339, 15.13381329, -17.29904232, -207.31067384
3, 0.
*SHELL SECTION, ELSET=ELEM_1657, COMPOSITE, ORIENTATION=ORI_1657
1.58926582, 3, CFRP, 0.
** SOURCE_TET=2080
*ELSET, ELSET=ELEM_1658
1658
*ORIENTATION, NAME=ORI_1658, SYSTEM=RECTANGULAR
21.66895415, -16.96737634, -206.10766850, 22.79749583, -17.72057850, -205.70881993
3, 0.
*SHELL SECTION, ELSET=ELEM_1658, COMPOSITE, ORIENTATION=ORI_1658
1.49450493, 3, CFRP, 0.
** SOURCE_TET=1728
*ELSET, ELSET=ELEM_1659
1659
*ORIENTATION, NAME=ORI_1659, SYSTEM=RECTANGULAR
20.40745098, -19.79938090, -205.82973574, 21.43114490, -20.68442061, -205.41893715
3, 0.
*SHELL SECTION, ELSET=ELEM_1659, COMPOSITE, ORIENTATION=ORI_1659
1.48460817, 3, CFRP, 0.
** SOURCE_TET=1214
*ELSET, ELSET=ELEM_1660
1660
*ORIENTATION, NAME=ORI_1660, SYSTEM=RECTANGULAR
18.28465572, -20.03585671, -206.21806448, 19.26447929, -20.97117006, -205.81169678
3, 0.
*SHELL SECTION, ELSET=ELEM_1660, COMPOSITE, ORIENTATION=ORI_1660
1.49536085, 3, CFRP, 0.
** SOURCE_TET=816
*ELSET, ELSET=ELEM_1661
1661
*ORIENTATION, NAME=ORI_1661, SYSTEM=RECTANGULAR
-2.85153481, -20.63188233, -207.78469387, -3.02576409, -22.00201771, -207.48076430
3, 0.
*SHELL SECTION, ELSET=ELEM_1661, COMPOSITE, ORIENTATION=ORI_1661
1.60876906, 3, CFRP, 0.
** SOURCE_TET=1713
*ELSET, ELSET=ELEM_1662
1662
*ORIENTATION, NAME=ORI_1662, SYSTEM=RECTANGULAR
-0.84977365, -21.44659413, -207.64725649, -0.82383646, -22.82552084, -207.33438529
3, 0.
*SHELL SECTION, ELSET=ELEM_1662, COMPOSITE, ORIENTATION=ORI_1662
1.59179211, 3, CFRP, 0.
** SOURCE_TET=2676
*ELSET, ELSET=ELEM_1663
1663
*ORIENTATION, NAME=ORI_1663, SYSTEM=RECTANGULAR
0.98865161, -20.16687382, -207.91940382, 1.10194781, -21.54534248, -207.62446636
3, 0.
*SHELL SECTION, ELSET=ELEM_1663, COMPOSITE, ORIENTATION=ORI_1663
1.61094308, 3, CFRP, 0.
** SOURCE_TET=2396
*ELSET, ELSET=ELEM_1664
1664
*ORIENTATION, NAME=ORI_1664, SYSTEM=RECTANGULAR
24.66780403, -16.71468688, -205.40721510, 25.82899482, -17.39413591, -204.97134244
3, 0.
*SHELL SECTION, ELSET=ELEM_1664, COMPOSITE, ORIENTATION=ORI_1664
1.47618604, 3, CFRP, 0.
** SOURCE_TET=1912
*ELSET, ELSET=ELEM_1665
1665
*ORIENTATION, NAME=ORI_1665, SYSTEM=RECTANGULAR
25.61066314, -13.67960273, -205.63046331, 26.85305447, -14.20481562, -205.20547484
3, 0.
*SHELL SECTION, ELSET=ELEM_1665, COMPOSITE, ORIENTATION=ORI_1665
1.47779536, 3, CFRP, 0.
** SOURCE_TET=829
*ELSET, ELSET=ELEM_1666
1666
*ORIENTATION, NAME=ORI_1666, SYSTEM=RECTANGULAR
23.35359231, -11.80491259, -206.48398095, 24.59154042, -12.36813285, -206.09633756
3, 0.
*SHELL SECTION, ELSET=ELEM_1666, COMPOSITE, ORIENTATION=ORI_1666
1.52493274, 3, CFRP, 0.
** SOURCE_TET=1984
*ELSET, ELSET=ELEM_1667
1667
*ORIENTATION, NAME=ORI_1667, SYSTEM=RECTANGULAR
22.40110360, -22.20503782, -204.83764043, 23.41495704, -23.07793315, -204.37921382
3, 0.
*SHELL SECTION, ELSET=ELEM_1667, COMPOSITE, ORIENTATION=ORI_1667
1.46149111, 3, CFRP, 0.
** SOURCE_TET=1807
*ELSET, ELSET=ELEM_1668
1668
*ORIENTATION, NAME=ORI_1668, SYSTEM=RECTANGULAR
25.51836816, -19.98300084, -204.52707809, 26.61692138, -20.72921875, -204.04093032
3, 0.
*SHELL SECTION, ELSET=ELEM_1668, COMPOSITE, ORIENTATION=ORI_1668
1.44780922, 3, CFRP, 0.
** SOURCE_TET=3278
*ELSET, ELSET=ELEM_1669
1669
*ORIENTATION, NAME=ORI_1669, SYSTEM=RECTANGULAR
21.60354914, -25.87580895, -204.05861523, 22.53181883, -26.82504326, -203.57151193
3, 0.
*SHELL SECTION, ELSET=ELEM_1669, COMPOSITE, ORIENTATION=ORI_1669
1.43598604, 3, CFRP, 0.
** SOURCE_TET=1666
*ELSET, ELSET=ELEM_1670
1670
*ORIENTATION, NAME=ORI_1670, SYSTEM=RECTANGULAR
17.74858997, -27.30012758, -204.45222915, 18.57039828, -28.35190980, -203.98491206
3, 0.
*SHELL SECTION, ELSET=ELEM_1670, COMPOSITE, ORIENTATION=ORI_1670
1.45383561, 3, CFRP, 0.
** SOURCE_TET=1039
*ELSET, ELSET=ELEM_1671
1671
*ORIENTATION, NAME=ORI_1671, SYSTEM=RECTANGULAR
16.31223174, -21.83047020, -206.18941241, 17.18212405, -22.87030823, -205.78689007
3, 0.
*SHELL SECTION, ELSET=ELEM_1671, COMPOSITE, ORIENTATION=ORI_1671
1.49352169, 3, CFRP, 0.
** SOURCE_TET=1657
*ELSET, ELSET=ELEM_1672
1672
*ORIENTATION, NAME=ORI_1672, SYSTEM=RECTANGULAR
15.34057130, -24.75122206, -205.59919960, 16.14194603, -25.83368184, -205.16783042
3, 0.
*SHELL SECTION, ELSET=ELEM_1672, COMPOSITE, ORIENTATION=ORI_1672
1.47826552, 3, CFRP, 0.
** SOURCE_TET=3465
*ELSET, ELSET=ELEM_1673
1673
*ORIENTATION, NAME=ORI_1673, SYSTEM=RECTANGULAR
24.70441914, -28.66096580, -202.45569762, 25.64034349, -29.56980058, -201.90974437
3, 0.
*SHELL SECTION, ELSET=ELEM_1673, COMPOSITE, ORIENTATION=ORI_1673
1.41448343, 3, CFRP, 0.
** SOURCE_TET=3433
*ELSET, ELSET=ELEM_1674
1674
*ORIENTATION, NAME=ORI_1674, SYSTEM=RECTANGULAR
28.79558214, -26.04827245, -202.01953868, 29.84050914, -26.81191327, -201.44946828
3, 0.
*SHELL SECTION, ELSET=ELEM_1674, COMPOSITE, ORIENTATION=ORI_1674
1.40249681, 3, CFRP, 0.
** SOURCE_TET=2322
*ELSET, ELSET=ELEM_1675
1675
*ORIENTATION, NAME=ORI_1675, SYSTEM=RECTANGULAR
28.82305330, -21.03730825, -203.29854260, 29.94041237, -21.73775965, -202.78778185
3, 0.
*SHELL SECTION, ELSET=ELEM_1675, COMPOSITE, ORIENTATION=ORI_1675
1.42895150, 3, CFRP, 0.
** SOURCE_TET=2379
*ELSET, ELSET=ELEM_1676
1676
*ORIENTATION, NAME=ORI_1676, SYSTEM=RECTANGULAR
23.52907706, -33.20002766, -201.21659096, 24.39265679, -34.15378985, -200.62959204
3, 0.
*SHELL SECTION, ELSET=ELEM_1676, COMPOSITE, ORIENTATION=ORI_1676
1.40143073, 3, CFRP, 0.
** SOURCE_TET=4956
*ELSET, ELSET=ELEM_1677
1677
*ORIENTATION, NAME=ORI_1677, SYSTEM=RECTANGULAR
19.12631589, -34.82811309, -201.64774418, 19.86445006, -35.89314271, -201.08129042
3, 0.
*SHELL SECTION, ELSET=ELEM_1677, COMPOSITE, ORIENTATION=ORI_1677
1.40062809, 3, CFRP, 0.
** SOURCE_TET=2130
*ELSET, ELSET=ELEM_1678
1678
*ORIENTATION, NAME=ORI_1678, SYSTEM=RECTANGULAR
16.44191057, -31.71903805, -203.29420735, 17.14981915, -32.82865974, -202.77690168
3, 0.
*SHELL SECTION, ELSET=ELEM_1678, COMPOSITE, ORIENTATION=ORI_1678
1.42929339, 3, CFRP, 0.
** SOURCE_TET=5746
*ELSET, ELSET=ELEM_1679
1679
*ORIENTATION, NAME=ORI_1679, SYSTEM=RECTANGULAR
26.80928614, -36.43732724, -199.01965631, 27.68374338, -37.34149451, -198.37327711
3, 0.
*SHELL SECTION, ELSET=ELEM_1679, COMPOSITE, ORIENTATION=ORI_1679
1.37233782, 3, CFRP, 0.
** SOURCE_TET=3958
*ELSET, ELSET=ELEM_1680
1680
*ORIENTATION, NAME=ORI_1680, SYSTEM=RECTANGULAR
32.14325572, -34.09745835, -198.13726061, 33.12372771, -34.85977747, -197.46084043
3, 0.
*SHELL SECTION, ELSET=ELEM_1680, COMPOSITE, ORIENTATION=ORI_1680
1.36368322, 3, CFRP, 0.
** SOURCE_TET=2992
*ELSET, ELSET=ELEM_1681
1681
*ORIENTATION, NAME=ORI_1681, SYSTEM=RECTANGULAR
32.98470366, -28.24055638, -199.87843225, 34.03652578, -28.95230614, -199.25627270
3, 0.
*SHELL SECTION, ELSET=ELEM_1681, COMPOSITE, ORIENTATION=ORI_1681
1.38427436, 3, CFRP, 0.
** SOURCE_TET=7286
*ELSET, ELSET=ELEM_1682
1682
*ORIENTATION, NAME=ORI_1682, SYSTEM=RECTANGULAR
25.20232425, -41.66551442, -197.15766410, 25.96305165, -42.63325282, -196.46140538
3, 0.
*SHELL SECTION, ELSET=ELEM_1682, COMPOSITE, ORIENTATION=ORI_1682
1.35782588, 3, CFRP, 0.
** SOURCE_TET=5077
*ELSET, ELSET=ELEM_1683
1683
*ORIENTATION, NAME=ORI_1683, SYSTEM=RECTANGULAR
20.68885763, -42.68036703, -197.89309823, 21.37938530, -43.70685191, -197.20789729
3, 0.
*SHELL SECTION, ELSET=ELEM_1683, COMPOSITE, ORIENTATION=ORI_1683
1.36120749, 3, CFRP, 0.
** SOURCE_TET=5705
*ELSET, ELSET=ELEM_1684
1684
*ORIENTATION, NAME=ORI_1684, SYSTEM=RECTANGULAR
17.89748527, -39.08263160, -200.19329614, 18.57562776, -40.16254079, -199.58180705
3, 0.
*SHELL SECTION, ELSET=ELEM_1684, COMPOSITE, ORIENTATION=ORI_1684
1.38765383, 3, CFRP, 0.
** SOURCE_TET=4450
*ELSET, ELSET=ELEM_1685
1685
*ORIENTATION, NAME=ORI_1685, SYSTEM=RECTANGULAR
28.77916915, -45.29164980, -194.16916372, 29.59963998, -46.15697779, -193.40887754
3, 0.
*SHELL SECTION, ELSET=ELEM_1685, COMPOSITE, ORIENTATION=ORI_1685
1.33988762, 3, CFRP, 0.
** SOURCE_TET=5220
*ELSET, ELSET=ELEM_1686
1686
*ORIENTATION, NAME=ORI_1686, SYSTEM=RECTANGULAR
34.72036558, -43.12013244, -193.01403661, 35.60358131, -43.89471448, -192.22666591
3, 0.
*SHELL SECTION, ELSET=ELEM_1686, COMPOSITE, ORIENTATION=ORI_1686
1.33616590, 3, CFRP, 0.
** SOURCE_TET=4138
*ELSET, ELSET=ELEM_1687
1687
*ORIENTATION, NAME=ORI_1687, SYSTEM=RECTANGULAR
36.43999352, -37.15094101, -195.12868583, 37.41681313, -37.85852638, -194.39034555
3, 0.
*SHELL SECTION, ELSET=ELEM_1687, COMPOSITE, ORIENTATION=ORI_1687
1.34953082, 3, CFRP, 0.
** SOURCE_TET=3201
*ELSET, ELSET=ELEM_1688
1688
*ORIENTATION, NAME=ORI_1688, SYSTEM=RECTANGULAR
26.64092172, -50.76877130, -191.69226539, 27.39780831, -51.64616638, -190.88152465
3, 0.
*SHELL SECTION, ELSET=ELEM_1688, COMPOSITE, ORIENTATION=ORI_1688
1.33220530, 3, CFRP, 0.
** SOURCE_TET=4430
*ELSET, ELSET=ELEM_1689
1689
*ORIENTATION, NAME=ORI_1689, SYSTEM=RECTANGULAR
20.26817824, -52.14100988, -192.62601746, 20.89512896, -53.13135148, -191.83471706
3, 0.
*SHELL SECTION, ELSET=ELEM_1689, COMPOSITE, ORIENTATION=ORI_1689
1.33953023, 3, CFRP, 0.
** SOURCE_TET=5513
*ELSET, ELSET=ELEM_1690
1690
*ORIENTATION, NAME=ORI_1690, SYSTEM=RECTANGULAR
17.89982036, -47.68320815, -195.85001358, 18.51884111, -48.72675490, -195.12349897
3, 0.
*SHELL SECTION, ELSET=ELEM_1690, COMPOSITE, ORIENTATION=ORI_1690
1.35165453, 3, CFRP, 0.
** SOURCE_TET=761
*ELSET, ELSET=ELEM_1691
1691
*ORIENTATION, NAME=ORI_1691, SYSTEM=RECTANGULAR
-4.70990034, -21.95569695, -207.42507899, -4.95292494, -23.30977768, -207.09735286
3, 0.
*SHELL SECTION, ELSET=ELEM_1691, COMPOSITE, ORIENTATION=ORI_1691
1.58422780, 3, CFRP, 0.
** SOURCE_TET=1084
*ELSET, ELSET=ELEM_1692
1692
*ORIENTATION, NAME=ORI_1692, SYSTEM=RECTANGULAR
-6.80681771, -21.16392819, -207.47509393, -7.15599705, -22.49600629, -207.15315958
3, 0.
*SHELL SECTION, ELSET=ELEM_1692, COMPOSITE, ORIENTATION=ORI_1692
1.58728039, 3, CFRP, 0.
** SOURCE_TET=1362
*ELSET, ELSET=ELEM_1693
1693
*ORIENTATION, NAME=ORI_1693, SYSTEM=RECTANGULAR
-6.61237593, -18.99767871, -207.93519847, -6.99512113, -20.32699698, -207.64122729
3, 0.
*SHELL SECTION, ELSET=ELEM_1693, COMPOSITE, ORIENTATION=ORI_1693
1.61965466, 3, CFRP, 0.
** SOURCE_TET=680
*ELSET, ELSET=ELEM_1694
1694
*ORIENTATION, NAME=ORI_1694, SYSTEM=RECTANGULAR
-4.48468709, -24.25086459, -206.88631825, -4.66048147, -25.60716383, -206.52638950
3, 0.
*SHELL SECTION, ELSET=ELEM_1694, COMPOSITE, ORIENTATION=ORI_1694
1.53951931, 3, CFRP, 0.
** SOURCE_TET=494
*ELSET, ELSET=ELEM_1695
1695
*ORIENTATION, NAME=ORI_1695, SYSTEM=RECTANGULAR
-0.66580607, -23.71898882, -207.12090907, -0.61967334, -25.08962638, -206.77562015
3, 0.
*SHELL SECTION, ELSET=ELEM_1695, COMPOSITE, ORIENTATION=ORI_1695
1.56143236, 3, CFRP, 0.
** SOURCE_TET=940
*ELSET, ELSET=ELEM_1696
1696
*ORIENTATION, NAME=ORI_1696, SYSTEM=RECTANGULAR
-2.46770814, -25.17369084, -206.72437602, -2.50310359, -26.53950387, -206.35927067
3, 0.
*SHELL SECTION, ELSET=ELEM_1696, COMPOSITE, ORIENTATION=ORI_1696
1.52015150, 3, CFRP, 0.
** SOURCE_TET=5177
*ELSET, ELSET=ELEM_1697
1697
*ORIENTATION, NAME=ORI_1697, SYSTEM=RECTANGULAR
32.37645553, -18.22983762, -202.73164978, 33.57656869, -18.75880260, -202.20257089
3, 0.
*SHELL SECTION, ELSET=ELEM_1697, COMPOSITE, ORIENTATION=ORI_1697
1.41615844, 3, CFRP, 0.
** SOURCE_TET=2506
*ELSET, ELSET=ELEM_1698
1698
*ORIENTATION, NAME=ORI_1698, SYSTEM=RECTANGULAR
28.47253945, -12.60011224, -204.96401041, 29.73890204, -13.04563589, -204.51922456
3, 0.
*SHELL SECTION, ELSET=ELEM_1698, COMPOSITE, ORIENTATION=ORI_1698
1.46243513, 3, CFRP, 0.
** SOURCE_TET=2913
*ELSET, ELSET=ELEM_1699
1699
*ORIENTATION, NAME=ORI_1699, SYSTEM=RECTANGULAR
31.87950734, -14.55465143, -203.58118623, 33.11438806, -15.01662068, -203.06966495
3, 0.
*SHELL SECTION, ELSET=ELEM_1699, COMPOSITE, ORIENTATION=ORI_1699
1.42713773, 3, CFRP, 0.
** SOURCE_TET=1322
*ELSET, ELSET=ELEM_1700
1700
*ORIENTATION, NAME=ORI_1700, SYSTEM=RECTANGULAR
-13.01871642, -11.28125344, -208.48374107, -14.01959400, -12.24835643, -208.23283098
3, 0.
*SHELL SECTION, ELSET=ELEM_1700, COMPOSITE, ORIENTATION=ORI_1700
1.67811108, 3, CFRP, 0.
** SOURCE_TET=2621
*ELSET, ELSET=ELEM_1701
1701
*ORIENTATION, NAME=ORI_1701, SYSTEM=RECTANGULAR
-12.25281390, -13.34683765, -208.32472375, -13.16305678, -14.39595564, -208.05862354
3, 0.
*SHELL SECTION, ELSET=ELEM_1701, COMPOSITE, ORIENTATION=ORI_1701
1.65966511, 3, CFRP, 0.
** SOURCE_TET=1787
*ELSET, ELSET=ELEM_1702
1702
*ORIENTATION, NAME=ORI_1702, SYSTEM=RECTANGULAR
-10.12464135, -13.87318728, -208.49232222, -10.94992280, -14.99365576, -208.24040774
3, 0.
*SHELL SECTION, ELSET=ELEM_1702, COMPOSITE, ORIENTATION=ORI_1702
1.67960215, 3, CFRP, 0.
** SOURCE_TET=1882
*ELSET, ELSET=ELEM_1703
1703
*ORIENTATION, NAME=ORI_1703, SYSTEM=RECTANGULAR
-8.79705894, -25.21092893, -206.32209224, -9.13051061, -26.52767172, -205.92839387
3, 0.
*SHELL SECTION, ELSET=ELEM_1703, COMPOSITE, ORIENTATION=ORI_1703
1.50279534, 3, CFRP, 0.
** SOURCE_TET=2148
*ELSET, ELSET=ELEM_1704
1704
*ORIENTATION, NAME=ORI_1704, SYSTEM=RECTANGULAR
-6.72006850, -26.26304167, -206.21236186, -6.96719810, -27.59845928, -205.81791696
3, 0.
*SHELL SECTION, ELSET=ELEM_1704, COMPOSITE, ORIENTATION=ORI_1704
1.49901605, 3, CFRP, 0.
** SOURCE_TET=943
*ELSET, ELSET=ELEM_1705
1705
*ORIENTATION, NAME=ORI_1705, SYSTEM=RECTANGULAR
-8.63968782, -22.43940317, -207.04654214, -9.05887791, -23.74388769, -206.69639959
3, 0.
*SHELL SECTION, ELSET=ELEM_1705, COMPOSITE, ORIENTATION=ORI_1705
1.54194677, 3, CFRP, 0.
** SOURCE_TET=972
*ELSET, ELSET=ELEM_1706
1706
*ORIENTATION, NAME=ORI_1706, SYSTEM=RECTANGULAR
1.37995083, -24.61667925, -206.89000096, 1.51946251, -25.97769777, -206.53199944
3, 0.
*SHELL SECTION, ELSET=ELEM_1706, COMPOSITE, ORIENTATION=ORI_1706
1.55025470, 3, CFRP, 0.
** SOURCE_TET=2195
*ELSET, ELSET=ELEM_1707
1707
*ORIENTATION, NAME=ORI_1707, SYSTEM=RECTANGULAR
3.23344397, -23.24012255, -207.18594649, 3.45501676, -24.59447265, -206.84441862
3, 0.
*SHELL SECTION, ELSET=ELEM_1707, COMPOSITE, ORIENTATION=ORI_1707
1.56517601, 3, CFRP, 0.
** SOURCE_TET=2668
*ELSET, ELSET=ELEM_1708
1708
*ORIENTATION, NAME=ORI_1708, SYSTEM=RECTANGULAR
3.02571067, -21.06324730, -207.68937747, 3.24118241, -22.42576903, -207.37775838
3, 0.
*SHELL SECTION, ELSET=ELEM_1708, COMPOSITE, ORIENTATION=ORI_1708
1.59496307, 3, CFRP, 0.
** SOURCE_TET=1704
*ELSET, ELSET=ELEM_1709
1709
*ORIENTATION, NAME=ORI_1709, SYSTEM=RECTANGULAR
1.53617267, -27.52035746, -206.08487618, 1.66799836, -28.86834919, -205.67800976
3, 0.
*SHELL SECTION, ELSET=ELEM_1709, COMPOSITE, ORIENTATION=ORI_1709
1.49920034, 3, CFRP, 0.
** SOURCE_TET=1786
*ELSET, ELSET=ELEM_1710
1710
*ORIENTATION, NAME=ORI_1710, SYSTEM=RECTANGULAR
-0.77765517, -29.26669239, -205.56811439, -0.72396182, -30.61585075, -205.14753296
3, 0.
*SHELL SECTION, ELSET=ELEM_1710, COMPOSITE, ORIENTATION=ORI_1710
1.48446035, 3, CFRP, 0.
** SOURCE_TET=1987
*ELSET, ELSET=ELEM_1711
1711
*ORIENTATION, NAME=ORI_1711, SYSTEM=RECTANGULAR
-2.73236334, -27.82050782, -205.97876542, -2.75790431, -29.17325836, -205.56716655
3, 0.
*SHELL SECTION, ELSET=ELEM_1711, COMPOSITE, ORIENTATION=ORI_1711
1.49549055, 3, CFRP, 0.
** SOURCE_TET=7317
*ELSET, ELSET=ELEM_1712
1712
*ORIENTATION, NAME=ORI_1712, SYSTEM=RECTANGULAR
30.46120385, -54.87083868, -187.51258444, 31.21720259, -55.67149771, -186.62522261
3, 0.
*SHELL SECTION, ELSET=ELEM_1712, COMPOSITE, ORIENTATION=ORI_1712
1.32172644, 3, CFRP, 0.
** SOURCE_TET=4220
*ELSET, ELSET=ELEM_1713
1713
*ORIENTATION, NAME=ORI_1713, SYSTEM=RECTANGULAR
39.17954660, -46.82750240, -188.86096808, 40.05032361, -47.52603191, -187.99274926
3, 0.
*SHELL SECTION, ELSET=ELEM_1713, COMPOSITE, ORIENTATION=ORI_1713
1.32480633, 3, CFRP, 0.
** SOURCE_TET=3431
*ELSET, ELSET=ELEM_1714
1714
*ORIENTATION, NAME=ORI_1714, SYSTEM=RECTANGULAR
37.05588545, -53.09845623, -185.83189358, 37.86864640, -53.81734651, -184.92491155
3, 0.
*SHELL SECTION, ELSET=ELEM_1714, COMPOSITE, ORIENTATION=ORI_1714
1.31813228, 3, CFRP, 0.
** SOURCE_TET=5692
*ELSET, ELSET=ELEM_1715
1715
*ORIENTATION, NAME=ORI_1715, SYSTEM=RECTANGULAR
17.30055116, -57.61244712, -189.56204482, 17.86606123, -58.59445908, -188.71596512
3, 0.
*SHELL SECTION, ELSET=ELEM_1715, COMPOSITE, ORIENTATION=ORI_1715
1.32455623, 3, CFRP, 0.
** SOURCE_TET=5611
*ELSET, ELSET=ELEM_1716
1716
*ORIENTATION, NAME=ORI_1716, SYSTEM=RECTANGULAR
21.19477352, -62.39524356, -184.82183021, 21.78158757, -63.28456178, -183.89190422
3, 0.
*SHELL SECTION, ELSET=ELEM_1716, COMPOSITE, ORIENTATION=ORI_1716
1.31457806, 3, CFRP, 0.
** SOURCE_TET=4764
*ELSET, ELSET=ELEM_1717
1717
*ORIENTATION, NAME=ORI_1717, SYSTEM=RECTANGULAR
27.98014046, -61.02695467, -183.70957513, 28.63540684, -61.85449903, -182.76840760
3, 0.
*SHELL SECTION, ELSET=ELEM_1717, COMPOSITE, ORIENTATION=ORI_1717
1.31261623, 3, CFRP, 0.
** SOURCE_TET=4432
*ELSET, ELSET=ELEM_1718
1718
*ORIENTATION, NAME=ORI_1718, SYSTEM=RECTANGULAR
10.33509024, -58.80499489, -189.87087968, 10.75767752, -59.85954196, -189.02865022
3, 0.
*SHELL SECTION, ELSET=ELEM_1718, COMPOSITE, ORIENTATION=ORI_1718
1.32937145, 3, CFRP, 0.
** SOURCE_TET=4215
*ELSET, ELSET=ELEM_1719
1719
*ORIENTATION, NAME=ORI_1719, SYSTEM=RECTANGULAR
5.48445560, -54.01770965, -193.60196074, 5.83641651, -55.15625318, -192.84048708
3, 0.
*SHELL SECTION, ELSET=ELEM_1719, COMPOSITE, ORIENTATION=ORI_1719
1.34086657, 3, CFRP, 0.
** SOURCE_TET=3772
*ELSET, ELSET=ELEM_1720
1720
*ORIENTATION, NAME=ORI_1720, SYSTEM=RECTANGULAR
7.57731091, -49.16818027, -196.51014949, 7.96280398, -50.31581446, -195.77917012
3, 0.
*SHELL SECTION, ELSET=ELEM_1720, COMPOSITE, ORIENTATION=ORI_1720
1.35191751, 3, CFRP, 0.
** SOURCE_TET=3234
*ELSET, ELSET=ELEM_1721
1721
*ORIENTATION, NAME=ORI_1721, SYSTEM=RECTANGULAR
13.21358308, -47.07507240, -197.04829225, 13.76167866, -48.17080664, -196.34192287
3, 0.
*SHELL SECTION, ELSET=ELEM_1721, COMPOSITE, ORIENTATION=ORI_1721
1.35728049, 3, CFRP, 0.
** SOURCE_TET=4697
*ELSET, ELSET=ELEM_1722
1722
*ORIENTATION, NAME=ORI_1722, SYSTEM=RECTANGULAR
7.03584818, -64.84270466, -185.38095619, 7.42317257, -65.84547259, -184.46202404
3, 0.
*SHELL SECTION, ELSET=ELEM_1722, COMPOSITE, ORIENTATION=ORI_1722
1.31369996, 3, CFRP, 0.
** SOURCE_TET=6676
*ELSET, ELSET=ELEM_1723
1723
*ORIENTATION, NAME=ORI_1723, SYSTEM=RECTANGULAR
18.02802132, -68.19203845, -180.46983617, 18.57274101, -69.05251017, -179.48857735
3, 0.
*SHELL SECTION, ELSET=ELEM_1723, COMPOSITE, ORIENTATION=ORI_1723
1.30303478, 3, CFRP, 0.
** SOURCE_TET=5280
*ELSET, ELSET=ELEM_1724
1724
*ORIENTATION, NAME=ORI_1724, SYSTEM=RECTANGULAR
10.87002863, -69.44323560, -180.69041270, 11.30268755, -70.36888977, -179.71267520
3, 0.
*SHELL SECTION, ELSET=ELEM_1724, COMPOSITE, ORIENTATION=ORI_1724
1.30605221, 3, CFRP, 0.
** SOURCE_TET=3670
*ELSET, ELSET=ELEM_1725
1725
*ORIENTATION, NAME=ORI_1725, SYSTEM=RECTANGULAR
-0.47577146, -65.67856234, -184.96393558, -0.22911742, -66.72004808, -184.03956053
3, 0.
*SHELL SECTION, ELSET=ELEM_1725, COMPOSITE, ORIENTATION=ORI_1725
1.31560397, 3, CFRP, 0.
** SOURCE_TET=4236
*ELSET, ELSET=ELEM_1726
1726
*ORIENTATION, NAME=ORI_1726, SYSTEM=RECTANGULAR
-4.71441520, -60.48981133, -189.11518606, -4.54683294, -61.60242741, -188.25844710
3, 0.
*SHELL SECTION, ELSET=ELEM_1726, COMPOSITE, ORIENTATION=ORI_1726
1.32438290, 3, CFRP, 0.
** SOURCE_TET=4571
*ELSET, ELSET=ELEM_1727
1727
*ORIENTATION, NAME=ORI_1727, SYSTEM=RECTANGULAR
-2.01436150, -54.88567068, -193.24532570, -1.84409976, -56.05074398, -192.46198979
3, 0.
*SHELL SECTION, ELSET=ELEM_1727, COMPOSITE, ORIENTATION=ORI_1727
1.34184313, 3, CFRP, 0.
** SOURCE_TET=4568
*ELSET, ELSET=ELEM_1728
1728
*ORIENTATION, NAME=ORI_1728, SYSTEM=RECTANGULAR
45.49874405, -44.06543973, -187.03220242, 46.43397997, -44.63550443, -186.13757400
3, 0.
*SHELL SECTION, ELSET=ELEM_1728, COMPOSITE, ORIENTATION=ORI_1728
1.31567860, 3, CFRP, 0.
** SOURCE_TET=5897
*ELSET, ELSET=ELEM_1729
1729
*ORIENTATION, NAME=ORI_1729, SYSTEM=RECTANGULAR
46.96242963, -36.94783706, -189.83424306, 47.97787833, -37.45479260, -188.99052508
3, 0.
*SHELL SECTION, ELSET=ELEM_1729, COMPOSITE, ORIENTATION=ORI_1729
1.32737041, 3, CFRP, 0.
** SOURCE_TET=5543
*ELSET, ELSET=ELEM_1730
1730
*ORIENTATION, NAME=ORI_1730, SYSTEM=RECTANGULAR
42.36322604, -33.74492059, -193.78314385, 43.40468876, -34.30497816, -193.00745646
3, 0.
*SHELL SECTION, ELSET=ELEM_1730, COMPOSITE, ORIENTATION=ORI_1730
1.33891463, 3, CFRP, 0.
** SOURCE_TET=5223
*ELSET, ELSET=ELEM_1731
1731
*ORIENTATION, NAME=ORI_1731, SYSTEM=RECTANGULAR
50.08535878, -47.87476517, -181.63983848, 50.98038238, -48.36433743, -180.66042449
3, 0.
*SHELL SECTION, ELSET=ELEM_1731, COMPOSITE, ORIENTATION=ORI_1731
1.30658138, 3, CFRP, 0.
** SOURCE_TET=5598
*ELSET, ELSET=ELEM_1732
1732
*ORIENTATION, NAME=ORI_1732, SYSTEM=RECTANGULAR
47.52340819, -55.02146000, -178.16362260, 48.36165307, -55.53334385, -177.14611563
3, 0.
*SHELL SECTION, ELSET=ELEM_1732, COMPOSITE, ORIENTATION=ORI_1732
1.30178726, 3, CFRP, 0.
** SOURCE_TET=6122
*ELSET, ELSET=ELEM_1733
1733
*ORIENTATION, NAME=ORI_1733, SYSTEM=RECTANGULAR
40.84340286, -57.47578711, -180.51476788, 41.62231546, -58.11292778, -179.52111456
3, 0.
*SHELL SECTION, ELSET=ELEM_1733, COMPOSITE, ORIENTATION=ORI_1733
1.30423081, 3, CFRP, 0.
** SOURCE_TET=5853
*ELSET, ELSET=ELEM_1734
1734
*ORIENTATION, NAME=ORI_1734, SYSTEM=RECTANGULAR
21.05567043, -73.48251857, -173.86563514, 21.60416131, -74.21898118, -172.79009780
3, 0.
*SHELL SECTION, ELSET=ELEM_1734, COMPOSITE, ORIENTATION=ORI_1734
1.29535317, 3, CFRP, 0.
** SOURCE_TET=5458
*ELSET, ELSET=ELEM_1735
1735
*ORIENTATION, NAME=ORI_1735, SYSTEM=RECTANGULAR
27.69672688, -72.40399208, -172.56310571, 28.29723890, -73.09792708, -171.48707619
3, 0.
*SHELL SECTION, ELSET=ELEM_1735, COMPOSITE, ORIENTATION=ORI_1735
1.29404640, 3, CFRP, 0.
** SOURCE_TET=6191
*ELSET, ELSET=ELEM_1736
1736
*ORIENTATION, NAME=ORI_1736, SYSTEM=RECTANGULAR
31.42482014, -65.73024137, -178.05075253, 32.10800996, -66.43292800, -177.03120206
3, 0.
*SHELL SECTION, ELSET=ELEM_1736, COMPOSITE, ORIENTATION=ORI_1736
1.30099738, 3, CFRP, 0.
** SOURCE_TET=2550
*ELSET, ELSET=ELEM_1737
1737
*ORIENTATION, NAME=ORI_1737, SYSTEM=RECTANGULAR
38.88849863, -6.78450603, -201.80114818, 40.18137630, -6.85080260, -201.23187489
3, 0.
*SHELL SECTION, ELSET=ELEM_1737, COMPOSITE, ORIENTATION=ORI_1737
1.39475107, 3, CFRP, 0.
** SOURCE_TET=4848
*ELSET, ELSET=ELEM_1738
1738
*ORIENTATION, NAME=ORI_1738, SYSTEM=RECTANGULAR
41.36950901, -9.91493413, -200.40305398, 42.63299070, -10.08939162, -199.79217052
3, 0.
*SHELL SECTION, ELSET=ELEM_1738, COMPOSITE, ORIENTATION=ORI_1738
1.38648582, 3, CFRP, 0.
** SOURCE_TET=6522
*ELSET, ELSET=ELEM_1739
1739
*ORIENTATION, NAME=ORI_1739, SYSTEM=RECTANGULAR
-3.78577103, -70.81810523, -180.09820461, -3.53938534, -71.80188194, -179.11256905
3, 0.
*SHELL SECTION, ELSET=ELEM_1739, COMPOSITE, ORIENTATION=ORI_1739
1.30300009, 3, CFRP, 0.
** SOURCE_TET=5811
*ELSET, ELSET=ELEM_1740
1740
*ORIENTATION, NAME=ORI_1740, SYSTEM=RECTANGULAR
7.42102812, -75.58678968, -174.49127136, 7.83051226, -76.42582946, -173.42904022
3, 0.
*SHELL SECTION, ELSET=ELEM_1740, COMPOSITE, ORIENTATION=ORI_1740
1.29479218, 3, CFRP, 0.
** SOURCE_TET=6273
*ELSET, ELSET=ELEM_1741
1741
*ORIENTATION, NAME=ORI_1741, SYSTEM=RECTANGULAR
0.29812673, -76.11533239, -174.28621568, 0.62594702, -76.98301787, -173.21866907
3, 0.
*SHELL SECTION, ELSET=ELEM_1741, COMPOSITE, ORIENTATION=ORI_1741
1.29217041, 3, CFRP, 0.
** SOURCE_TET=4648
*ELSET, ELSET=ELEM_1742
1742
*ORIENTATION, NAME=ORI_1742, SYSTEM=RECTANGULAR
-12.22819680, -60.49246690, -188.33225812, -12.20063761, -61.60453685, -187.45902223
3, 0.
*SHELL SECTION, ELSET=ELEM_1742, COMPOSITE, ORIENTATION=ORI_1742
1.31883931, 3, CFRP, 0.
** SOURCE_TET=5593
*ELSET, ELSET=ELEM_1743
1743
*ORIENTATION, NAME=ORI_1743, SYSTEM=RECTANGULAR
-15.42719119, -65.61173740, -183.44971024, -15.39019246, -66.66299795, -182.50446828
3, 0.
*SHELL SECTION, ELSET=ELEM_1743, COMPOSITE, ORIENTATION=ORI_1743
1.30977607, 3, CFRP, 0.
** SOURCE_TET=4519
*ELSET, ELSET=ELEM_1744
1744
*ORIENTATION, NAME=ORI_1744, SYSTEM=RECTANGULAR
-11.19363760, -70.76586199, -179.35045250, -11.07018616, -71.75599202, -178.34825379
3, 0.
*SHELL SECTION, ELSET=ELEM_1744, COMPOSITE, ORIENTATION=ORI_1744
1.30369794, 3, CFRP, 0.
** SOURCE_TET=5633
*ELSET, ELSET=ELEM_1745
1745
*ORIENTATION, NAME=ORI_1745, SYSTEM=RECTANGULAR
-16.18528672, -55.05234089, -191.58595094, -16.28330938, -56.20792434, -190.77661884
3, 0.
*SHELL SECTION, ELSET=ELEM_1745, COMPOSITE, ORIENTATION=ORI_1745
1.33345246, 3, CFRP, 0.
** SOURCE_TET=4131
*ELSET, ELSET=ELEM_1746
1746
*ORIENTATION, NAME=ORI_1746, SYSTEM=RECTANGULAR
-13.29725380, -49.94586500, -195.31677149, -13.40460471, -51.14769395, -194.57915169
3, 0.
*SHELL SECTION, ELSET=ELEM_1746, COMPOSITE, ORIENTATION=ORI_1746
1.34617281, 3, CFRP, 0.
** SOURCE_TET=3500
*ELSET, ELSET=ELEM_1747
1747
*ORIENTATION, NAME=ORI_1747, SYSTEM=RECTANGULAR
-6.63465846, -49.78450451, -196.19051618, -6.62430715, -51.00442290, -195.47518970
3, 0.
*SHELL SECTION, ELSET=ELEM_1747, COMPOSITE, ORIENTATION=ORI_1747
1.35613990, 3, CFRP, 0.
** SOURCE_TET=6088
*ELSET, ELSET=ELEM_1748
1748
*ORIENTATION, NAME=ORI_1748, SYSTEM=RECTANGULAR
-23.16806961, -54.43417280, -190.31768872, -23.39280132, -55.55206534, -189.48114109
3, 0.
*SHELL SECTION, ELSET=ELEM_1748, COMPOSITE, ORIENTATION=ORI_1748
1.32554257, 3, CFRP, 0.
** SOURCE_TET=4392
*ELSET, ELSET=ELEM_1749
1749
*ORIENTATION, NAME=ORI_1749, SYSTEM=RECTANGULAR
-26.93434921, -59.79508349, -185.01870057, -27.11946026, -60.84075417, -184.08472694
3, 0.
*SHELL SECTION, ELSET=ELEM_1749, COMPOSITE, ORIENTATION=ORI_1749
1.31433642, 3, CFRP, 0.
** SOURCE_TET=4607
*ELSET, ELSET=ELEM_1750
1750
*ORIENTATION, NAME=ORI_1750, SYSTEM=RECTANGULAR
-23.14122383, -65.53165248, -181.39085527, -23.20981465, -66.56148718, -180.42403792
3, 0.
*SHELL SECTION, ELSET=ELEM_1750, COMPOSITE, ORIENTATION=ORI_1750
1.30370879, 3, CFRP, 0.
** SOURCE_TET=5670
*ELSET, ELSET=ELEM_1751
1751
*ORIENTATION, NAME=ORI_1751, SYSTEM=RECTANGULAR
-26.57913086, -48.69691012, -192.89849498, -26.94732418, -49.81302642, -192.11190863
3, 0.
*SHELL SECTION, ELSET=ELEM_1751, COMPOSITE, ORIENTATION=ORI_1751
1.33819222, 3, CFRP, 0.
** SOURCE_TET=4687
*ELSET, ELSET=ELEM_1752
1752
*ORIENTATION, NAME=ORI_1752, SYSTEM=RECTANGULAR
-23.18937602, -44.59616136, -196.24003955, -23.57720060, -45.74690538, -195.51520833
3, 0.
*SHELL SECTION, ELSET=ELEM_1752, COMPOSITE, ORIENTATION=ORI_1752
1.35058403, 3, CFRP, 0.
** SOURCE_TET=5524
*ELSET, ELSET=ELEM_1753
1753
*ORIENTATION, NAME=ORI_1753, SYSTEM=RECTANGULAR
-16.88575103, -45.22416995, -197.38108823, -17.14662894, -46.42862651, -196.68738289
3, 0.
*SHELL SECTION, ELSET=ELEM_1753, COMPOSITE, ORIENTATION=ORI_1753
1.36221445, 3, CFRP, 0.
** SOURCE_TET=1859
*ELSET, ELSET=ELEM_1754
1754
*ORIENTATION, NAME=ORI_1754, SYSTEM=RECTANGULAR
-15.21953692, -10.87416342, -208.21586990, -16.31886336, -11.71999119, -207.94008602
3, 0.
*SHELL SECTION, ELSET=ELEM_1754, COMPOSITE, ORIENTATION=ORI_1754
1.63363338, 3, CFRP, 0.
** SOURCE_TET=3338
*ELSET, ELSET=ELEM_1755
1755
*ORIENTATION, NAME=ORI_1755, SYSTEM=RECTANGULAR
-16.23704334, -8.93603647, -208.24667407, -17.43878152, -9.63143472, -207.97788678
3, 0.
*SHELL SECTION, ELSET=ELEM_1755, COMPOSITE, ORIENTATION=ORI_1755
1.65259695, 3, CFRP, 0.
** SOURCE_TET=3880
*ELSET, ELSET=ELEM_1756
1756
*ORIENTATION, NAME=ORI_1756, SYSTEM=RECTANGULAR
-15.18721109, -7.60039622, -208.53405566, -16.41433787, -8.25450854, -208.27657372
3, 0.
*SHELL SECTION, ELSET=ELEM_1756, COMPOSITE, ORIENTATION=ORI_1756
1.68171918, 3, CFRP, 0.
** SOURCE_TET=3250
*ELSET, ELSET=ELEM_1757
1757
*ORIENTATION, NAME=ORI_1757, SYSTEM=RECTANGULAR
-16.57437370, -12.52220063, -207.79643596, -17.64629360, -13.39336362, -207.49301749
3, 0.
*SHELL SECTION, ELSET=ELEM_1757, COMPOSITE, ORIENTATION=ORI_1757
1.60016572, 3, CFRP, 0.
** SOURCE_TET=2027
*ELSET, ELSET=ELEM_1758
1758
*ORIENTATION, NAME=ORI_1758, SYSTEM=RECTANGULAR
-15.76557879, -14.60595838, -207.64106589, -16.76428616, -15.55682866, -207.32733146
3, 0.
*SHELL SECTION, ELSET=ELEM_1758, COMPOSITE, ORIENTATION=ORI_1758
1.59023499, 3, CFRP, 0.
** SOURCE_TET=1374
*ELSET, ELSET=ELEM_1759
1759
*ORIENTATION, NAME=ORI_1759, SYSTEM=RECTANGULAR
-13.64276348, -14.98064399, -207.90710473, -14.53814716, -16.03451719, -207.61106530
3, 0.
*SHELL SECTION, ELSET=ELEM_1759, COMPOSITE, ORIENTATION=ORI_1759
1.62110984, 3, CFRP, 0.
** SOURCE_TET=5197
*ELSET, ELSET=ELEM_1760
1760
*ORIENTATION, NAME=ORI_1760, SYSTEM=RECTANGULAR
-33.24564608, -47.77388881, -190.98954417, -33.70710535, -48.82991268, -190.16986806
3, 0.
*SHELL SECTION, ELSET=ELEM_1760, COMPOSITE, ORIENTATION=ORI_1760
1.32781315, 3, CFRP, 0.
** SOURCE_TET=5499
*ELSET, ELSET=ELEM_1761
1761
*ORIENTATION, NAME=ORI_1761, SYSTEM=RECTANGULAR
-36.92392632, -52.90617368, -186.01848264, -37.31978645, -53.90843880, -185.10264455
3, 0.
*SHELL SECTION, ELSET=ELEM_1761, COMPOSITE, ORIENTATION=ORI_1761
1.31655371, 3, CFRP, 0.
** SOURCE_TET=4493
*ELSET, ELSET=ELEM_1762
1762
*ORIENTATION, NAME=ORI_1762, SYSTEM=RECTANGULAR
-34.01830376, -59.16870578, -182.60710183, -34.28498848, -60.18078501, -181.65601042
3, 0.
*SHELL SECTION, ELSET=ELEM_1762, COMPOSITE, ORIENTATION=ORI_1762
1.30659008, 3, CFRP, 0.
** SOURCE_TET=1311
*ELSET, ELSET=ELEM_1763
1763
*ORIENTATION, NAME=ORI_1763, SYSTEM=RECTANGULAR
-18.48072209, -8.52290180, -207.88862250, -19.70880907, -9.15669780, -207.58844753
3, 0.
*SHELL SECTION, ELSET=ELEM_1763, COMPOSITE, ORIENTATION=ORI_1763
1.62037039, 3, CFRP, 0.
** SOURCE_TET=7215
*ELSET, ELSET=ELEM_1764
1764
*ORIENTATION, NAME=ORI_1764, SYSTEM=RECTANGULAR
-19.60588206, -10.07122424, -207.52033352, -20.80518499, -10.74952228, -207.20161066
3, 0.
*SHELL SECTION, ELSET=ELEM_1764, COMPOSITE, ORIENTATION=ORI_1764
1.59413421, 3, CFRP, 0.
** SOURCE_TET=2628
*ELSET, ELSET=ELEM_1765
1765
*ORIENTATION, NAME=ORI_1765, SYSTEM=RECTANGULAR
-18.71007518, -12.09249619, -207.46598763, -19.82129883, -12.90498090, -207.14187254
3, 0.
*SHELL SECTION, ELSET=ELEM_1765, COMPOSITE, ORIENTATION=ORI_1765
1.57871020, 3, CFRP, 0.
** SOURCE_TET=2697
*ELSET, ELSET=ELEM_1766
1766
*ORIENTATION, NAME=ORI_1766, SYSTEM=RECTANGULAR
-19.35019432, -6.46510091, -207.87812697, -20.64643861, -6.94484706, -207.57880378
3, 0.
*SHELL SECTION, ELSET=ELEM_1766, COMPOSITE, ORIENTATION=ORI_1766
1.60684311, 3, CFRP, 0.
** SOURCE_TET=1461
*ELSET, ELSET=ELEM_1767
1767
*ORIENTATION, NAME=ORI_1767, SYSTEM=RECTANGULAR
-17.83568392, -4.72825838, -208.25696071, -19.16180579, -5.14011314, -207.98904942
3, 0.
*SHELL SECTION, ELSET=ELEM_1767, COMPOSITE, ORIENTATION=ORI_1767
1.63924885, 3, CFRP, 0.
** SOURCE_TET=849
*ELSET, ELSET=ELEM_1768
1768
*ORIENTATION, NAME=ORI_1768, SYSTEM=RECTANGULAR
-15.91341239, -5.44984309, -208.55659329, -17.20112714, -5.97927226, -208.30861045
3, 0.
*SHELL SECTION, ELSET=ELEM_1768, COMPOSITE, ORIENTATION=ORI_1768
1.68192482, 3, CFRP, 0.
** SOURCE_TET=2083
*ELSET, ELSET=ELEM_1769
1769
*ORIENTATION, NAME=ORI_1769, SYSTEM=RECTANGULAR
-21.39522582, -5.96374175, -207.47962356, -22.70149858, -6.39923565, -207.15713859
3, 0.
*SHELL SECTION, ELSET=ELEM_1769, COMPOSITE, ORIENTATION=ORI_1769
1.58043170, 3, CFRP, 0.
** SOURCE_TET=703
*ELSET, ELSET=ELEM_1770
1770
*ORIENTATION, NAME=ORI_1770, SYSTEM=RECTANGULAR
-22.83481365, -7.75082303, -207.02706514, -24.11142697, -8.24689748, -206.67468954
3, 0.
*SHELL SECTION, ELSET=ELEM_1770, COMPOSITE, ORIENTATION=ORI_1770
1.55603909, 3, CFRP, 0.
** SOURCE_TET=858
*ELSET, ELSET=ELEM_1771
1771
*ORIENTATION, NAME=ORI_1771, SYSTEM=RECTANGULAR
-21.90172760, -9.76430487, -207.06196004, -23.11607702, -10.39871504, -206.71141870
3, 0.
*SHELL SECTION, ELSET=ELEM_1771, COMPOSITE, ORIENTATION=ORI_1771
1.54050577, 3, CFRP, 0.
** SOURCE_TET=2236
*ELSET, ELSET=ELEM_1772
1772
*ORIENTATION, NAME=ORI_1772, SYSTEM=RECTANGULAR
-22.14578974, -3.85814169, -207.41979513, -23.49419660, -4.13047474, -207.09171944
3, 0.
*SHELL SECTION, ELSET=ELEM_1772, COMPOSITE, ORIENTATION=ORI_1772
1.57466078, 3, CFRP, 0.
** SOURCE_TET=2889
*ELSET, ELSET=ELEM_1773
1773
*ORIENTATION, NAME=ORI_1773, SYSTEM=RECTANGULAR
-20.77134416, -2.19670508, -207.77380517, -22.13817303, -2.39335751, -207.46867133
3, 0.
*SHELL SECTION, ELSET=ELEM_1773, COMPOSITE, ORIENTATION=ORI_1773
1.59664655, 3, CFRP, 0.
** SOURCE_TET=1649
*ELSET, ELSET=ELEM_1774
1774
*ORIENTATION, NAME=ORI_1774, SYSTEM=RECTANGULAR
-18.53318970, -2.60843656, -208.20988961, -19.90281509, -2.83039467, -207.93628245
3, 0.
*SHELL SECTION, ELSET=ELEM_1774, COMPOSITE, ORIENTATION=ORI_1774
1.63144743, 3, CFRP, 0.
** SOURCE_TET=985
*ELSET, ELSET=ELEM_1775
1775
*ORIENTATION, NAME=ORI_1775, SYSTEM=RECTANGULAR
-17.06907280, -16.25289764, -207.16312989, -18.04491485, -17.21797206, -206.82200870
3, 0.
*SHELL SECTION, ELSET=ELEM_1775, COMPOSITE, ORIENTATION=ORI_1775
1.56257570, 3, CFRP, 0.
** SOURCE_TET=1228
*ELSET, ELSET=ELEM_1776
1776
*ORIENTATION, NAME=ORI_1776, SYSTEM=RECTANGULAR
-19.87853110, -15.83396592, -206.68239444, -20.90507166, -16.73148028, -206.30731785
3, 0.
*SHELL SECTION, ELSET=ELEM_1776, COMPOSITE, ORIENTATION=ORI_1776
1.51972246, 3, CFRP, 0.
** SOURCE_TET=1025
*ELSET, ELSET=ELEM_1777
1777
*ORIENTATION, NAME=ORI_1777, SYSTEM=RECTANGULAR
-20.70963752, -13.75299935, -206.82584775, -21.79517449, -14.58172916, -206.45867424
3, 0.
*SHELL SECTION, ELSET=ELEM_1777, COMPOSITE, ORIENTATION=ORI_1777
1.52518463, 3, CFRP, 0.
** SOURCE_TET=4109
*ELSET, ELSET=ELEM_1778
1778
*ORIENTATION, NAME=ORI_1778, SYSTEM=RECTANGULAR
-36.62639658, -42.03745865, -192.70740763, -37.23080961, -43.04188230, -191.91632102
3, 0.
*SHELL SECTION, ELSET=ELEM_1778, COMPOSITE, ORIENTATION=ORI_1778
1.33841097, 3, CFRP, 0.
** SOURCE_TET=3776
*ELSET, ELSET=ELEM_1779
1779
*ORIENTATION, NAME=ORI_1779, SYSTEM=RECTANGULAR
-33.45645491, -37.07411003, -196.36902040, -34.12562872, -38.09581515, -195.65605122
3, 0.
*SHELL SECTION, ELSET=ELEM_1779, COMPOSITE, ORIENTATION=ORI_1779
1.35232401, 3, CFRP, 0.
** SOURCE_TET=4254
*ELSET, ELSET=ELEM_1780
1780
*ORIENTATION, NAME=ORI_1780, SYSTEM=RECTANGULAR
-28.11835487, -36.99821227, -198.38784598, -28.72087848, -38.08447741, -197.71183316
3, 0.
*SHELL SECTION, ELSET=ELEM_1780, COMPOSITE, ORIENTATION=ORI_1780
1.37188959, 3, CFRP, 0.
** SOURCE_TET=3104
*ELSET, ELSET=ELEM_1781
1781
*ORIENTATION, NAME=ORI_1781, SYSTEM=RECTANGULAR
-24.56500125, -40.11249173, -198.10240646, -25.07707215, -41.23896620, -197.41768851
3, 0.
*SHELL SECTION, ELSET=ELEM_1781, COMPOSITE, ORIENTATION=ORI_1781
1.37020469, 3, CFRP, 0.
** SOURCE_TET=6242
*ELSET, ELSET=ELEM_1782
1782
*ORIENTATION, NAME=ORI_1782, SYSTEM=RECTANGULAR
-43.24253770, -41.01680544, -190.00402891, -43.89245155, -41.94776861, -189.16086846
3, 0.
*SHELL SECTION, ELSET=ELEM_1782, COMPOSITE, ORIENTATION=ORI_1782
1.32509267, 3, CFRP, 0.
** SOURCE_TET=6355
*ELSET, ELSET=ELEM_1783
1783
*ORIENTATION, NAME=ORI_1783, SYSTEM=RECTANGULAR
-45.93624976, -45.59259083, -185.93049550, -46.51485574, -46.50836960, -185.02133965
3, 0.
*SHELL SECTION, ELSET=ELEM_1783, COMPOSITE, ORIENTATION=ORI_1783
1.31619298, 3, CFRP, 0.
** SOURCE_TET=4636
*ELSET, ELSET=ELEM_1784
1784
*ORIENTATION, NAME=ORI_1784, SYSTEM=RECTANGULAR
-43.00311628, -51.71276097, -183.66087832, -43.44162322, -52.67624345, -182.72310800
3, 0.
*SHELL SECTION, ELSET=ELEM_1784, COMPOSITE, ORIENTATION=ORI_1784
1.31217813, 3, CFRP, 0.
** SOURCE_TET=4307
*ELSET, ELSET=ELEM_1785
1785
*ORIENTATION, NAME=ORI_1785, SYSTEM=RECTANGULAR
-46.42642435, -34.99734051, -191.06803302, -47.20716179, -35.84318287, -190.24644933
3, 0.
*SHELL SECTION, ELSET=ELEM_1785, COMPOSITE, ORIENTATION=ORI_1785
1.33245730, 3, CFRP, 0.
** SOURCE_TET=4563
*ELSET, ELSET=ELEM_1786
1786
*ORIENTATION, NAME=ORI_1786, SYSTEM=RECTANGULAR
-43.19869510, -30.75293583, -194.53956950, -44.04517905, -31.59268734, -193.77912073
3, 0.
*SHELL SECTION, ELSET=ELEM_1786, COMPOSITE, ORIENTATION=ORI_1786
1.34367108, 3, CFRP, 0.
** SOURCE_TET=4151
*ELSET, ELSET=ELEM_1787
1787
*ORIENTATION, NAME=ORI_1787, SYSTEM=RECTANGULAR
-36.83304539, -31.82867379, -197.11486688, -37.64974099, -32.75108472, -196.42048487
3, 0.
*SHELL SECTION, ELSET=ELEM_1787, COMPOSITE, ORIENTATION=ORI_1787
1.36162066, 3, CFRP, 0.
** SOURCE_TET=663
*ELSET, ELSET=ELEM_1788
1788
*ORIENTATION, NAME=ORI_1788, SYSTEM=RECTANGULAR
-24.28435024, -3.39533952, -206.92499442, -25.63071949, -3.64121833, -206.56885755
3, 0.
*SHELL SECTION, ELSET=ELEM_1788, COMPOSITE, ORIENTATION=ORI_1788
1.54913223, 3, CFRP, 0.
** SOURCE_TET=826
*ELSET, ELSET=ELEM_1789
1789
*ORIENTATION, NAME=ORI_1789, SYSTEM=RECTANGULAR
-25.35841861, -7.22606673, -206.42862341, -26.64744969, -7.66165312, -206.04305453
3, 0.
*SHELL SECTION, ELSET=ELEM_1789, COMPOSITE, ORIENTATION=ORI_1789
1.52035809, 3, CFRP, 0.
** SOURCE_TET=622
*ELSET, ELSET=ELEM_1790
1790
*ORIENTATION, NAME=ORI_1790, SYSTEM=RECTANGULAR
-26.05852881, -4.97728479, -206.38520713, -27.37455102, -5.32305417, -205.99981241
3, 0.
*SHELL SECTION, ELSET=ELEM_1790, COMPOSITE, ORIENTATION=ORI_1790
1.51864231, 3, CFRP, 0.
** SOURCE_TET=1476
*ELSET, ELSET=ELEM_1791
1791
*ORIENTATION, NAME=ORI_1791, SYSTEM=RECTANGULAR
-21.52812013, -0.07153945, -207.63465662, -22.90385198, -0.16501980, -207.32061313
3, 0.
*SHELL SECTION, ELSET=ELEM_1791, COMPOSITE, ORIENTATION=ORI_1791
1.58755231, 3, CFRP, 0.
** SOURCE_TET=2274
*ELSET, ELSET=ELEM_1792
1792
*ORIENTATION, NAME=ORI_1792, SYSTEM=RECTANGULAR
-23.71767442, 0.36474069, -207.12366113, -25.08892055, 0.33992032, -206.77859880
3, 0.
*SHELL SECTION, ELSET=ELEM_1792, COMPOSITE, ORIENTATION=ORI_1792
1.55167127, 3, CFRP, 0.
** SOURCE_TET=615
*ELSET, ELSET=ELEM_1793
1793
*ORIENTATION, NAME=ORI_1793, SYSTEM=RECTANGULAR
-25.09836184, -1.29854302, -206.76952834, -26.46100037, -1.40052660, -206.40508962
3, 0.
*SHELL SECTION, ELSET=ELEM_1793, COMPOSITE, ORIENTATION=ORI_1793
1.53620827, 3, CFRP, 0.
** SOURCE_TET=6400
*ELSET, ELSET=ELEM_1794
1794
*ORIENTATION, NAME=ORI_1794, SYSTEM=RECTANGULAR
-52.68930334, -33.39627849, -187.84169765, -53.47268171, -34.17592601, -186.95938928
3, 0.
*SHELL SECTION, ELSET=ELEM_1794, COMPOSITE, ORIENTATION=ORI_1794
1.31876397, 3, CFRP, 0.
** SOURCE_TET=7322
*ELSET, ELSET=ELEM_1795
1795
*ORIENTATION, NAME=ORI_1795, SYSTEM=RECTANGULAR
-55.75823850, -38.94875143, -182.83629313, -56.40289439, -39.76161410, -181.87521402
3, 0.
*SHELL SECTION, ELSET=ELEM_1795, COMPOSITE, ORIENTATION=ORI_1795
1.30562508, 3, CFRP, 0.
** SOURCE_TET=5064
*ELSET, ELSET=ELEM_1796
1796
*ORIENTATION, NAME=ORI_1796, SYSTEM=RECTANGULAR
-52.19271952, -45.12993341, -181.99138780, -52.76724550, -45.99019706, -181.02709202
3, 0.
*SHELL SECTION, ELSET=ELEM_1796, COMPOSITE, ORIENTATION=ORI_1796
1.30433893, 3, CFRP, 0.
** SOURCE_TET=838
*ELSET, ELSET=ELEM_1797
1797
*ORIENTATION, NAME=ORI_1797, SYSTEM=RECTANGULAR
-13.66023448, 11.29885590, -208.39169376, -14.73898301, 12.17607032, -208.13324365
3, 0.
*SHELL SECTION, ELSET=ELEM_1797, COMPOSITE, ORIENTATION=ORI_1797
1.67386281, 3, CFRP, 0.
** SOURCE_TET=608
*ELSET, ELSET=ELEM_1798
1798
*ORIENTATION, NAME=ORI_1798, SYSTEM=RECTANGULAR
-11.93092668, 12.45781668, -208.47976222, -12.86187484, 13.49080524, -208.22233233
3, 0.
*SHELL SECTION, ELSET=ELEM_1798, COMPOSITE, ORIENTATION=ORI_1798
1.66954243, 3, CFRP, 0.
** SOURCE_TET=3987
*ELSET, ELSET=ELEM_1799
1799
*ORIENTATION, NAME=ORI_1799, SYSTEM=RECTANGULAR
-55.34772141, -26.45027739, -188.61512363, -56.24188601, -27.11595879, -187.74487198
3, 0.
*SHELL SECTION, ELSET=ELEM_1799, COMPOSITE, ORIENTATION=ORI_1799
1.32417846, 3, CFRP, 0.
** SOURCE_TET=5232
*ELSET, ELSET=ELEM_1800
1800
*ORIENTATION, NAME=ORI_1800, SYSTEM=RECTANGULAR
-51.57469878, -22.33335284, -192.44328444, -52.54248965, -22.97497177, -191.63600136
3, 0.
*SHELL SECTION, ELSET=ELEM_1800, COMPOSITE, ORIENTATION=ORI_1800
1.33426404, 3, CFRP, 0.
** SOURCE_TET=3988
*ELSET, ELSET=ELEM_1801
1801
*ORIENTATION, NAME=ORI_1801, SYSTEM=RECTANGULAR
-45.67855105, -25.02443794, -195.13014293, -46.61131293, -25.79079309, -194.39349168
3, 0.
*SHELL SECTION, ELSET=ELEM_1801, COMPOSITE, ORIENTATION=ORI_1801
1.34591722, 3, CFRP, 0.
** SOURCE_TET=6406
*ELSET, ELSET=ELEM_1802
1802
*ORIENTATION, NAME=ORI_1802, SYSTEM=RECTANGULAR
-38.99042373, -63.72403795, -175.92670601, -39.18518338, -64.64795860, -174.87388157
3, 0.
*SHELL SECTION, ELSET=ELEM_1802, COMPOSITE, ORIENTATION=ORI_1802
1.29476535, 3, CFRP, 0.
** SOURCE_TET=6151
*ELSET, ELSET=ELEM_1803
1803
*ORIENTATION, NAME=ORI_1803, SYSTEM=RECTANGULAR
-45.52180700, -60.65323596, -174.70074637, -45.77488072, -61.55824774, -173.64390798
3, 0.
*SHELL SECTION, ELSET=ELEM_1803, COMPOSITE, ORIENTATION=ORI_1803
1.29352987, 3, CFRP, 0.
** SOURCE_TET=6998
*ELSET, ELSET=ELEM_1804
1804
*ORIENTATION, NAME=ORI_1804, SYSTEM=RECTANGULAR
-46.63164050, -54.95053438, -179.04203653, -47.01900970, -55.86397170, -178.03427794
3, 0.
*SHELL SECTION, ELSET=ELEM_1804, COMPOSITE, ORIENTATION=ORI_1804
1.30068326, 3, CFRP, 0.
** SOURCE_TET=5788
*ELSET, ELSET=ELEM_1805
1805
*ORIENTATION, NAME=ORI_1805, SYSTEM=RECTANGULAR
-61.67452712, -24.31846282, -184.39432588, -62.53892571, -24.93975398, -183.46329829
3, 0.
*SHELL SECTION, ELSET=ELEM_1805, COMPOSITE, ORIENTATION=ORI_1805
1.31071806, 3, CFRP, 0.
** SOURCE_TET=6074
*ELSET, ELSET=ELEM_1806
1806
*ORIENTATION, NAME=ORI_1806, SYSTEM=RECTANGULAR
-65.25894718, -29.60424238, -179.29155139, -65.99810187, -30.28461187, -178.29618829
3, 0.
*SHELL SECTION, ELSET=ELEM_1806, COMPOSITE, ORIENTATION=ORI_1806
1.30055499, 3, CFRP, 0.
** SOURCE_TET=5289
*ELSET, ELSET=ELEM_1807
1807
*ORIENTATION, NAME=ORI_1807, SYSTEM=RECTANGULAR
-61.99088655, -37.30691866, -178.48925020, -62.65158770, -38.04390749, -177.47914057
3, 0.
*SHELL SECTION, ELSET=ELEM_1807, COMPOSITE, ORIENTATION=ORI_1807
1.29960823, 3, CFRP, 0.
** SOURCE_TET=5535
*ELSET, ELSET=ELEM_1808
1808
*ORIENTATION, NAME=ORI_1808, SYSTEM=RECTANGULAR
-64.12849407, -16.94820997, -184.36496459, -65.04469394, -17.49044189, -183.43407129
3, 0.
*SHELL SECTION, ELSET=ELEM_1808, COMPOSITE, ORIENTATION=ORI_1808
1.31069231, 3, CFRP, 0.
** SOURCE_TET=5416
*ELSET, ELSET=ELEM_1809
1809
*ORIENTATION, NAME=ORI_1809, SYSTEM=RECTANGULAR
-60.24088814, -11.59050417, -188.61637134, -61.26558831, -12.03081838, -187.74682378
3, 0.
*SHELL SECTION, ELSET=ELEM_1809, COMPOSITE, ORIENTATION=ORI_1809
1.32121229, 3, CFRP, 0.
** SOURCE_TET=3756
*ELSET, ELSET=ELEM_1810
1810
*ORIENTATION, NAME=ORI_1810, SYSTEM=RECTANGULAR
-55.06577098, -12.35889385, -192.32174011, -56.13232495, -12.80385105, -191.50658630
3, 0.
*SHELL SECTION, ELSET=ELEM_1810, COMPOSITE, ORIENTATION=ORI_1810
1.33750165, 3, CFRP, 0.
** SOURCE_TET=5801
*ELSET, ELSET=ELEM_1811
1811
*ORIENTATION, NAME=ORI_1811, SYSTEM=RECTANGULAR
-51.98027732, -16.65681163, -193.58321981, -53.01131997, -17.22490169, -192.79949489
3, 0.
*SHELL SECTION, ELSET=ELEM_1811, COMPOSITE, ORIENTATION=ORI_1811
1.33771813, 3, CFRP, 0.
** SOURCE_TET=6201
*ELSET, ELSET=ELEM_1812
1812
*ORIENTATION, NAME=ORI_1812, SYSTEM=RECTANGULAR
-20.94875785, -76.17599016, -170.56646838, -20.83319716, -77.06281361, -169.47093659
3, 0.
*SHELL SECTION, ELSET=ELEM_1812, COMPOSITE, ORIENTATION=ORI_1812
1.29032004, 3, CFRP, 0.
** SOURCE_TET=6762
*ELSET, ELSET=ELEM_1813
1813
*ORIENTATION, NAME=ORI_1813, SYSTEM=RECTANGULAR
-13.22381223, -75.91412313, -173.22518990, -13.05798069, -76.81861129, -172.15075933
3, 0.
*SHELL SECTION, ELSET=ELEM_1813, COMPOSITE, ORIENTATION=ORI_1813
1.29263377, 3, CFRP, 0.
** SOURCE_TET=5900
*ELSET, ELSET=ELEM_1814
1814
*ORIENTATION, NAME=ORI_1814, SYSTEM=RECTANGULAR
-26.64099502, -70.96261616, -174.65042769, -26.65979574, -71.89407763, -173.58646055
3, 0.
*SHELL SECTION, ELSET=ELEM_1814, COMPOSITE, ORIENTATION=ORI_1814
1.29561794, 3, CFRP, 0.
** SOURCE_TET=6161
*ELSET, ELSET=ELEM_1815
1815
*ORIENTATION, NAME=ORI_1815, SYSTEM=RECTANGULAR
-70.32375179, -14.92825314, -179.03434514, -71.19485842, -15.41348224, -178.03148625
3, 0.
*SHELL SECTION, ELSET=ELEM_1815, COMPOSITE, ORIENTATION=ORI_1815
1.30001664, 3, CFRP, 0.
** SOURCE_TET=5369
*ELSET, ELSET=ELEM_1816
1816
*ORIENTATION, NAME=ORI_1816, SYSTEM=RECTANGULAR
-74.44527432, -20.87341693, -172.71626285, -75.16207805, -21.43738636, -171.63546181
3, 0.
*SHELL SECTION, ELSET=ELEM_1816, COMPOSITE, ORIENTATION=ORI_1816
1.29151750, 3, CFRP, 0.
** SOURCE_TET=5631
*ELSET, ELSET=ELEM_1817
1817
*ORIENTATION, NAME=ORI_1817, SYSTEM=RECTANGULAR
-71.85418607, -28.23078962, -172.93930528, -72.53273114, -28.84997447, -171.86404405
3, 0.
*SHELL SECTION, ELSET=ELEM_1817, COMPOSITE, ORIENTATION=ORI_1817
1.29165745, 3, CFRP, 0.
** SOURCE_TET=4911
*ELSET, ELSET=ELEM_1818
1818
*ORIENTATION, NAME=ORI_1818, SYSTEM=RECTANGULAR
-62.18647218, -4.42389029, -187.85267255, -63.23813783, -4.77268267, -186.97384194
3, 0.
*SHELL SECTION, ELSET=ELEM_1818, COMPOSITE, ORIENTATION=ORI_1818
1.31955099, 3, CFRP, 0.
** SOURCE_TET=5392
*ELSET, ELSET=ELEM_1819
1819
*ORIENTATION, NAME=ORI_1819, SYSTEM=RECTANGULAR
-67.77140781, -2.07362282, -183.07750615, -68.77056701, -2.37255665, -182.12235200
3, 0.
*SHELL SECTION, ELSET=ELEM_1819, COMPOSITE, ORIENTATION=ORI_1819
1.30754972, 3, CFRP, 0.
** SOURCE_TET=4845
*ELSET, ELSET=ELEM_1820
1820
*ORIENTATION, NAME=ORI_1820, SYSTEM=RECTANGULAR
-71.99941646, -7.16706308, -178.52765279, -72.90236327, -7.57930640, -177.52030850
3, 0.
*SHELL SECTION, ELSET=ELEM_1820, COMPOSITE, ORIENTATION=ORI_1820
1.29943895, 3, CFRP, 0.
** SOURCE_TET=4140
*ELSET, ELSET=ELEM_1821
1821
*ORIENTATION, NAME=ORI_1821, SYSTEM=RECTANGULAR
-14.25006887, 3.93496165, -208.88061672, -15.59463339, 4.31491164, -208.66202060
3, 0.
*SHELL SECTION, ELSET=ELEM_1821, COMPOSITE, ORIENTATION=ORI_1821
1.68546176, 3, CFRP, 0.
** SOURCE_TET=2269
*ELSET, ELSET=ELEM_1822
1822
*ORIENTATION, NAME=ORI_1822, SYSTEM=RECTANGULAR
-13.99849835, 1.61738262, -208.98033508, -15.39169331, 1.73226929, -208.76630505
3, 0.
*SHELL SECTION, ELSET=ELEM_1822, COMPOSITE, ORIENTATION=ORI_1822
1.68619776, 3, CFRP, 0.
** SOURCE_TET=5512
*ELSET, ELSET=ELEM_1823
1823
*ORIENTATION, NAME=ORI_1823, SYSTEM=RECTANGULAR
-57.79652379, 0.45338697, -191.29229111, -58.93164665, 0.24162194, -190.47580372
3, 0.
*SHELL SECTION, ELSET=ELEM_1823, COMPOSITE, ORIENTATION=ORI_1823
1.33062458, 3, CFRP, 0.
** SOURCE_TET=2513
*ELSET, ELSET=ELEM_1824
1824
*ORIENTATION, NAME=ORI_1824, SYSTEM=RECTANGULAR
-52.79693369, -1.73393745, -194.67901870, -53.96016742, -2.01165427, -193.92419378
3, 0.
*SHELL SECTION, ELSET=ELEM_1824, COMPOSITE, ORIENTATION=ORI_1824
1.34588563, 3, CFRP, 0.
** SOURCE_TET=6272
*ELSET, ELSET=ELEM_1825
1825
*ORIENTATION, NAME=ORI_1825, SYSTEM=RECTANGULAR
-52.02078875, -7.40615286, -194.92340873, -53.16366015, -7.77901618, -194.17854774
3, 0.
*SHELL SECTION, ELSET=ELEM_1825, COMPOSITE, ORIENTATION=ORI_1825
1.34649026, 3, CFRP, 0.
** SOURCE_TET=5088
*ELSET, ELSET=ELEM_1826
1826
*ORIENTATION, NAME=ORI_1826, SYSTEM=RECTANGULAR
-58.74164485, 7.38399748, -190.26232464, -59.87892119, 7.26813909, -189.42975071
3, 0.
*SHELL SECTION, ELSET=ELEM_1826, COMPOSITE, ORIENTATION=ORI_1826
1.32790911, 3, CFRP, 0.
** SOURCE_TET=5051
*ELSET, ELSET=ELEM_1827
1827
*ORIENTATION, NAME=ORI_1827, SYSTEM=RECTANGULAR
-64.51909875, 10.20632829, -185.30223080, -65.58250840, 10.11953076, -184.37399263
3, 0.
*SHELL SECTION, ELSET=ELEM_1827, COMPOSITE, ORIENTATION=ORI_1827
1.31258202, 3, CFRP, 0.
** SOURCE_TET=4741
*ELSET, ELSET=ELEM_1828
1828
*ORIENTATION, NAME=ORI_1828, SYSTEM=RECTANGULAR
-69.12257937, 5.67661514, -181.57150690, -70.13431191, 5.45755991, -180.60796547
3, 0.
*SHELL SECTION, ELSET=ELEM_1828, COMPOSITE, ORIENTATION=ORI_1828
1.30533874, 3, CFRP, 0.
** SOURCE_TET=3537
*ELSET, ELSET=ELEM_1829
1829
*ORIENTATION, NAME=ORI_1829, SYSTEM=RECTANGULAR
-15.75716783, 7.62969288, -208.43587019, -17.02096429, 8.20881616, -208.17618823
3, 0.
*SHELL SECTION, ELSET=ELEM_1829, COMPOSITE, ORIENTATION=ORI_1829
1.65939796, 3, CFRP, 0.
** SOURCE_TET=1947
*ELSET, ELSET=ELEM_1830
1830
*ORIENTATION, NAME=ORI_1830, SYSTEM=RECTANGULAR
-15.99338314, 5.29783090, -208.54904489, -17.32143670, 5.71594376, -208.30114291
3, 0.
*SHELL SECTION, ELSET=ELEM_1830, COMPOSITE, ORIENTATION=ORI_1830
1.68320870, 3, CFRP, 0.
** SOURCE_TET=1375
*ELSET, ELSET=ELEM_1831
1831
*ORIENTATION, NAME=ORI_1831, SYSTEM=RECTANGULAR
-16.13903694, 12.58005752, -207.84929237, -17.29516391, 13.33549890, -207.54486051
3, 0.
*SHELL SECTION, ELSET=ELEM_1831, COMPOSITE, ORIENTATION=ORI_1831
1.60882998, 3, CFRP, 0.
** SOURCE_TET=2448
*ELSET, ELSET=ELEM_1832
1832
*ORIENTATION, NAME=ORI_1832, SYSTEM=RECTANGULAR
-17.98901027, 11.46681448, -207.66623679, -19.19718696, 12.13477087, -207.35940890
3, 0.
*SHELL SECTION, ELSET=ELEM_1832, COMPOSITE, ORIENTATION=ORI_1832
1.59483671, 3, CFRP, 0.
** SOURCE_TET=3968
*ELSET, ELSET=ELEM_1833
1833
*ORIENTATION, NAME=ORI_1833, SYSTEM=RECTANGULAR
-17.58933415, 8.93965383, -208.00886925, -18.84423972, 9.52436227, -207.72020324
3, 0.
*SHELL SECTION, ELSET=ELEM_1833, COMPOSITE, ORIENTATION=ORI_1833
1.61953735, 3, CFRP, 0.
** SOURCE_TET=5185
*ELSET, ELSET=ELEM_1834
1834
*ORIENTATION, NAME=ORI_1834, SYSTEM=RECTANGULAR
-54.29305580, 12.13889291, -192.79238778, -55.46638836, 12.18472020, -192.00423134
3, 0.
*SHELL SECTION, ELSET=ELEM_1834, COMPOSITE, ORIENTATION=ORI_1834
1.33716083, 3, CFRP, 0.
** SOURCE_TET=3451
*ELSET, ELSET=ELEM_1835
1835
*ORIENTATION, NAME=ORI_1835, SYSTEM=RECTANGULAR
-48.91969618, 10.79829855, -196.29160621, -50.13519077, 10.87146091, -195.57242600
3, 0.
*SHELL SECTION, ELSET=ELEM_1835, COMPOSITE, ORIENTATION=ORI_1835
1.35011232, 3, CFRP, 0.
** SOURCE_TET=5065
*ELSET, ELSET=ELEM_1836
1836
*ORIENTATION, NAME=ORI_1836, SYSTEM=RECTANGULAR
-47.13381492, 5.97928011, -197.81839335, -48.36841090, 5.93689401, -197.12993407
3, 0.
*SHELL SECTION, ELSET=ELEM_1836, COMPOSITE, ORIENTATION=ORI_1836
1.36337972, 3, CFRP, 0.
** SOURCE_TET=5884
*ELSET, ELSET=ELEM_1837
1837
*ORIENTATION, NAME=ORI_1837, SYSTEM=RECTANGULAR
-48.74713333, 1.20281533, -197.14388967, -49.96569695, 1.06100454, -196.44033270
3, 0.
*SHELL SECTION, ELSET=ELEM_1837, COMPOSITE, ORIENTATION=ORI_1837
1.35981512, 3, CFRP, 0.
** SOURCE_TET=4661
*ELSET, ELSET=ELEM_1838
1838
*ORIENTATION, NAME=ORI_1838, SYSTEM=RECTANGULAR
-55.05889453, 18.98350268, -191.00883027, -56.20198219, 19.11342824, -190.18635234
3, 0.
*SHELL SECTION, ELSET=ELEM_1838, COMPOSITE, ORIENTATION=ORI_1838
1.33177090, 3, CFRP, 0.
** SOURCE_TET=5759
*ELSET, ELSET=ELEM_1839
1839
*ORIENTATION, NAME=ORI_1839, SYSTEM=RECTANGULAR
-59.92025442, 20.80769707, -187.02143761, -61.01187696, 20.93363406, -186.13121286
3, 0.
*SHELL SECTION, ELSET=ELEM_1839, COMPOSITE, ORIENTATION=ORI_1839
1.31735528, 3, CFRP, 0.
** SOURCE_TET=5993
*ELSET, ELSET=ELEM_1840
1840
*ORIENTATION, NAME=ORI_1840, SYSTEM=RECTANGULAR
-64.88586896, 16.82937388, -183.85852495, -65.94379325, 16.81219934, -182.92017468
3, 0.
*SHELL SECTION, ELSET=ELEM_1840, COMPOSITE, ORIENTATION=ORI_1840
1.31001580, 3, CFRP, 0.
** SOURCE_TET=4801
*ELSET, ELSET=ELEM_1841
1841
*ORIENTATION, NAME=ORI_1841, SYSTEM=RECTANGULAR
-50.34936296, 23.52109512, -192.86321656, -51.48683243, 23.81983018, -192.07777364
3, 0.
*SHELL SECTION, ELSET=ELEM_1841, COMPOSITE, ORIENTATION=ORI_1841
1.33814561, 3, CFRP, 0.
** SOURCE_TET=3025
*ELSET, ELSET=ELEM_1842
1842
*ORIENTATION, NAME=ORI_1842, SYSTEM=RECTANGULAR
-45.03729482, 21.41115371, -196.41057736, -46.21098416, 21.75607080, -195.70101021
3, 0.
*SHELL SECTION, ELSET=ELEM_1842, COMPOSITE, ORIENTATION=ORI_1842
1.35166550, 3, CFRP, 0.
** SOURCE_TET=5020
*ELSET, ELSET=ELEM_1843
1843
*ORIENTATION, NAME=ORI_1843, SYSTEM=RECTANGULAR
-44.38923333, 15.51898812, -198.05022302, -45.60992694, 15.75443566, -197.37607795
3, 0.
*SHELL SECTION, ELSET=ELEM_1843, COMPOSITE, ORIENTATION=ORI_1843
1.36718178, 3, CFRP, 0.
** SOURCE_TET=4579
*ELSET, ELSET=ELEM_1844
1844
*ORIENTATION, NAME=ORI_1844, SYSTEM=RECTANGULAR
-50.53793455, 30.00729184, -190.62501983, -51.61841296, 30.38164126, -189.79289669
3, 0.
*SHELL SECTION, ELSET=ELEM_1844, COMPOSITE, ORIENTATION=ORI_1844
1.32704401, 3, CFRP, 0.
** SOURCE_TET=3183
*ELSET, ELSET=ELEM_1845
1845
*ORIENTATION, NAME=ORI_1845, SYSTEM=RECTANGULAR
-56.31467159, 31.73701830, -185.90521988, -57.34687078, 32.03585344, -184.98583837
3, 0.
*SHELL SECTION, ELSET=ELEM_1845, COMPOSITE, ORIENTATION=ORI_1845
1.31657636, 3, CFRP, 0.
** SOURCE_TET=5258
*ELSET, ELSET=ELEM_1846
1846
*ORIENTATION, NAME=ORI_1846, SYSTEM=RECTANGULAR
-60.96036698, 27.09882748, -184.16971456, -62.01311446, 27.26843032, -183.24075944
3, 0.
*SHELL SECTION, ELSET=ELEM_1846, COMPOSITE, ORIENTATION=ORI_1846
1.31202543, 3, CFRP, 0.
** SOURCE_TET=5019
*ELSET, ELSET=ELEM_1847
1847
*ORIENTATION, NAME=ORI_1847, SYSTEM=RECTANGULAR
-45.32618144, 34.34670007, -191.96782229, -46.36785134, 34.86522535, -191.16404659
3, 0.
*SHELL SECTION, ELSET=ELEM_1847, COMPOSITE, ORIENTATION=ORI_1847
1.33484495, 3, CFRP, 0.
** SOURCE_TET=4500
*ELSET, ELSET=ELEM_1848
1848
*ORIENTATION, NAME=ORI_1848, SYSTEM=RECTANGULAR
-40.38832921, 32.24879889, -195.37048740, -41.44381717, 32.82964012, -194.62983321
3, 0.
*SHELL SECTION, ELSET=ELEM_1848, COMPOSITE, ORIENTATION=ORI_1848
1.34658825, 3, CFRP, 0.
** SOURCE_TET=4060
*ELSET, ELSET=ELEM_1849
1849
*ORIENTATION, NAME=ORI_1849, SYSTEM=RECTANGULAR
-40.29743322, 25.78857556, -197.56215447, -41.42791213, 26.29881442, -196.88268869
3, 0.
*SHELL SECTION, ELSET=ELEM_1849, COMPOSITE, ORIENTATION=ORI_1849
1.36322629, 3, CFRP, 0.
** SOURCE_TET=4813
*ELSET, ELSET=ELEM_1850
1850
*ORIENTATION, NAME=ORI_1850, SYSTEM=RECTANGULAR
-45.10708179, 40.73459316, -189.09813890, -46.09224770, 41.27949854, -188.24226142
3, 0.
*SHELL SECTION, ELSET=ELEM_1850, COMPOSITE, ORIENTATION=ORI_1850
1.32117236, 3, CFRP, 0.
** SOURCE_TET=5519
*ELSET, ELSET=ELEM_1851
1851
*ORIENTATION, NAME=ORI_1851, SYSTEM=RECTANGULAR
-50.80554677, 42.87677744, -184.30017050, -51.75959966, 43.33134090, -183.36040715
3, 0.
*SHELL SECTION, ELSET=ELEM_1851, COMPOSITE, ORIENTATION=ORI_1851
1.31176960, 3, CFRP, 0.
** SOURCE_TET=4368
*ELSET, ELSET=ELEM_1852
1852
*ORIENTATION, NAME=ORI_1852, SYSTEM=RECTANGULAR
-56.76320805, 38.22742361, -182.44952861, -57.75896659, 38.54484469, -181.49679109
3, 0.
*SHELL SECTION, ELSET=ELEM_1852, COMPOSITE, ORIENTATION=ORI_1852
1.30689430, 3, CFRP, 0.
** SOURCE_TET=5217
*ELSET, ELSET=ELEM_1853
1853
*ORIENTATION, NAME=ORI_1853, SYSTEM=RECTANGULAR
-39.41268165, 44.93882303, -189.84677213, -40.31914712, 45.62174495, -189.00300794
3, 0.
*SHELL SECTION, ELSET=ELEM_1853, COMPOSITE, ORIENTATION=ORI_1853
1.32680237, 3, CFRP, 0.
** SOURCE_TET=3446
*ELSET, ELSET=ELEM_1854
1854
*ORIENTATION, NAME=ORI_1854, SYSTEM=RECTANGULAR
-33.89397452, 42.56944524, -193.59846207, -34.79518841, 43.33913624, -192.82684734
3, 0.
*SHELL SECTION, ELSET=ELEM_1854, COMPOSITE, ORIENTATION=ORI_1854
1.33767760, 3, CFRP, 0.
** SOURCE_TET=4344
*ELSET, ELSET=ELEM_1855
1855
*ORIENTATION, NAME=ORI_1855, SYSTEM=RECTANGULAR
-34.68341291, 36.25570878, -196.23753912, -35.65426349, 36.99990251, -195.52787383
3, 0.
*SHELL SECTION, ELSET=ELEM_1855, COMPOSITE, ORIENTATION=ORI_1855
1.35643983, 3, CFRP, 0.
** SOURCE_TET=5040
*ELSET, ELSET=ELEM_1856
1856
*ORIENTATION, NAME=ORI_1856, SYSTEM=RECTANGULAR
-38.90231455, 51.59267720, -185.93220700, -39.75093580, 52.26441475, -185.02192647
3, 0.
*SHELL SECTION, ELSET=ELEM_1856, COMPOSITE, ORIENTATION=ORI_1856
1.31288528, 3, CFRP, 0.
** SOURCE_TET=3832
*ELSET, ELSET=ELEM_1857
1857
*ORIENTATION, NAME=ORI_1857, SYSTEM=RECTANGULAR
-50.51715354, 49.79499219, -179.98245410, -51.39196024, 50.28747579, -178.98637522
3, 0.
*SHELL SECTION, ELSET=ELEM_1857, COMPOSITE, ORIENTATION=ORI_1857
1.30369914, 3, CFRP, 0.
** SOURCE_TET=5303
*ELSET, ELSET=ELEM_1858
1858
*ORIENTATION, NAME=ORI_1858, SYSTEM=RECTANGULAR
-44.31179506, 54.30163844, -180.85785887, -45.15001362, 54.87891150, -179.87594978
3, 0.
*SHELL SECTION, ELSET=ELEM_1858, COMPOSITE, ORIENTATION=ORI_1858
1.30481112, 3, CFRP, 0.
** SOURCE_TET=4467
*ELSET, ELSET=ELEM_1859
1859
*ORIENTATION, NAME=ORI_1859, SYSTEM=RECTANGULAR
-28.08922871, 46.38536570, -193.73282103, -28.86819497, 47.28204449, -192.96524126
3, 0.
*SHELL SECTION, ELSET=ELEM_1859, COMPOSITE, ORIENTATION=ORI_1859
1.34279072, 3, CFRP, 0.
** SOURCE_TET=5450
*ELSET, ELSET=ELEM_1860
1860
*ORIENTATION, NAME=ORI_1860, SYSTEM=RECTANGULAR
-27.48078562, 52.45275848, -190.30152333, -28.21455603, 53.32596445, -189.46540592
3, 0.
*SHELL SECTION, ELSET=ELEM_1860, COMPOSITE, ORIENTATION=ORI_1860
1.32547188, 3, CFRP, 0.
** SOURCE_TET=5341
*ELSET, ELSET=ELEM_1861
1861
*ORIENTATION, NAME=ORI_1861, SYSTEM=RECTANGULAR
-32.81453408, 55.28404275, -186.23198043, -33.56702065, 56.06297022, -185.32256525
3, 0.
*SHELL SECTION, ELSET=ELEM_1861, COMPOSITE, ORIENTATION=ORI_1861
1.31655014, 3, CFRP, 0.
** SOURCE_TET=6956
*ELSET, ELSET=ELEM_1862
1862
*ORIENTATION, NAME=ORI_1862, SYSTEM=RECTANGULAR
-77.47869044, -4.36526469, -172.49926869, -78.31182354, -4.73452457, -171.41781764
3, 0.
*SHELL SECTION, ELSET=ELEM_1862, COMPOSITE, ORIENTATION=ORI_1862
1.29116225, 3, CFRP, 0.
** SOURCE_TET=6863
*ELSET, ELSET=ELEM_1863
1863
*ORIENTATION, NAME=ORI_1863, SYSTEM=RECTANGULAR
-78.45340417, 4.44970429, -171.19184270, -79.30784310, 4.14858019, -170.10590606
3, 0.
*SHELL SECTION, ELSET=ELEM_1863, COMPOSITE, ORIENTATION=ORI_1863
1.29004681, 3, CFRP, 0.
** SOURCE_TET=6842
*ELSET, ELSET=ELEM_1864
1864
*ORIENTATION, NAME=ORI_1864, SYSTEM=RECTANGULAR
-74.35423841, 9.35093660, -175.69969055, -75.27579105, 9.16238372, -174.64366568
3, 0.
*SHELL SECTION, ELSET=ELEM_1864, COMPOSITE, ORIENTATION=ORI_1864
1.29551291, 3, CFRP, 0.
** SOURCE_TET=4663
*ELSET, ELSET=ELEM_1865
1865
*ORIENTATION, NAME=ORI_1865, SYSTEM=RECTANGULAR
-22.88845698, 44.50040697, -196.34716548, -23.62261343, 45.47470339, -195.63179090
3, 0.
*SHELL SECTION, ELSET=ELEM_1865, COMPOSITE, ORIENTATION=ORI_1865
1.35317981, 3, CFRP, 0.
** SOURCE_TET=4586
*ELSET, ELSET=ELEM_1866
1866
*ORIENTATION, NAME=ORI_1866, SYSTEM=RECTANGULAR
-30.35537566, 33.53740526, -198.97445322, -31.31876050, 34.33590009, -198.31544211
3, 0.
*SHELL SECTION, ELSET=ELEM_1866, COMPOSITE, ORIENTATION=ORI_1866
1.37103605, 3, CFRP, 0.
** SOURCE_TET=3533
*ELSET, ELSET=ELEM_1867
1867
*ORIENTATION, NAME=ORI_1867, SYSTEM=RECTANGULAR
-25.31638468, 35.47634771, -199.83712017, -26.15772249, 36.42169335, -199.20587354
3, 0.
*SHELL SECTION, ELSET=ELEM_1867, COMPOSITE, ORIENTATION=ORI_1867
1.38246143, 3, CFRP, 0.
** SOURCE_TET=3406
*ELSET, ELSET=ELEM_1868
1868
*ORIENTATION, NAME=ORI_1868, SYSTEM=RECTANGULAR
-22.31023149, 39.81574078, -198.80817254, -23.06688987, 40.80912468, -198.14435290
3, 0.
*SHELL SECTION, ELSET=ELEM_1868, COMPOSITE, ORIENTATION=ORI_1868
1.37521696, 3, CFRP, 0.
** SOURCE_TET=5799
*ELSET, ELSET=ELEM_1869
1869
*ORIENTATION, NAME=ORI_1869, SYSTEM=RECTANGULAR
-21.24647349, 55.57250425, -190.08579946, -21.85551885, 56.53168413, -189.24375569
3, 0.
*SHELL SECTION, ELSET=ELEM_1869, COMPOSITE, ORIENTATION=ORI_1869
1.32815957, 3, CFRP, 0.
** SOURCE_TET=4414
*ELSET, ELSET=ELEM_1870
1870
*ORIENTATION, NAME=ORI_1870, SYSTEM=RECTANGULAR
-15.85541872, 52.49202887, -193.33030921, -16.41099753, 53.53719937, -192.55639009
3, 0.
*SHELL SECTION, ELSET=ELEM_1870, COMPOSITE, ORIENTATION=ORI_1870
1.33771396, 3, CFRP, 0.
** SOURCE_TET=3557
*ELSET, ELSET=ELEM_1871
1871
*ORIENTATION, NAME=ORI_1871, SYSTEM=RECTANGULAR
-16.93751875, 47.50475742, -196.16186436, -17.51274690, 48.56930484, -195.42984567
3, 0.
*SHELL SECTION, ELSET=ELEM_1871, COMPOSITE, ORIENTATION=ORI_1871
1.35652101, 3, CFRP, 0.
** SOURCE_TET=4923
*ELSET, ELSET=ELEM_1872
1872
*ORIENTATION, NAME=ORI_1872, SYSTEM=RECTANGULAR
-20.30488327, 61.78890871, -185.54609132, -20.88251987, 62.69524801, -184.62691504
3, 0.
*SHELL SECTION, ELSET=ELEM_1872, COMPOSITE, ORIENTATION=ORI_1872
1.31269133, 3, CFRP, 0.
** SOURCE_TET=5654
*ELSET, ELSET=ELEM_1873
1873
*ORIENTATION, NAME=ORI_1873, SYSTEM=RECTANGULAR
-25.66428643, 64.64369389, -181.44373033, -26.28181209, 65.47055937, -180.47679934
3, 0.
*SHELL SECTION, ELSET=ELEM_1873, COMPOSITE, ORIENTATION=ORI_1873
1.30604625, 3, CFRP, 0.
** SOURCE_TET=4411
*ELSET, ELSET=ELEM_1874
1874
*ORIENTATION, NAME=ORI_1874, SYSTEM=RECTANGULAR
-31.90357547, 61.26351002, -181.93696098, -32.61994122, 62.01233256, -180.97462793
3, 0.
*SHELL SECTION, ELSET=ELEM_1874, COMPOSITE, ORIENTATION=ORI_1874
1.30420959, 3, CFRP, 0.
** SOURCE_TET=4157
*ELSET, ELSET=ELEM_1875
1875
*ORIENTATION, NAME=ORI_1875, SYSTEM=RECTANGULAR
-9.44073514, 54.90397748, -192.75361365, -9.84715501, 56.00510343, -191.96472549
3, 0.
*SHELL SECTION, ELSET=ELEM_1875, COMPOSITE, ORIENTATION=ORI_1875
1.33914292, 3, CFRP, 0.
** SOURCE_TET=6359
*ELSET, ELSET=ELEM_1876
1876
*ORIENTATION, NAME=ORI_1876, SYSTEM=RECTANGULAR
-8.26030280, 60.86411449, -188.58376638, -8.65439095, 61.90873551, -187.71574480
3, 0.
*SHELL SECTION, ELSET=ELEM_1876, COMPOSITE, ORIENTATION=ORI_1876
1.32262146, 3, CFRP, 0.
** SOURCE_TET=4635
*ELSET, ELSET=ELEM_1877
1877
*ORIENTATION, NAME=ORI_1877, SYSTEM=RECTANGULAR
-13.73769300, 64.66303043, -184.60929144, -14.24110352, 65.60541390, -183.68274342
3, 0.
*SHELL SECTION, ELSET=ELEM_1877, COMPOSITE, ORIENTATION=ORI_1877
1.31112683, 3, CFRP, 0.
** SOURCE_TET=3796
*ELSET, ELSET=ELEM_1878
1878
*ORIENTATION, NAME=ORI_1878, SYSTEM=RECTANGULAR
-4.28313195, 52.07247820, -195.02592431, -4.60604959, 53.23320769, -194.28536287
3, 0.
*SHELL SECTION, ELSET=ELEM_1878, COMPOSITE, ORIENTATION=ORI_1878
1.34735727, 3, CFRP, 0.
** SOURCE_TET=3129
*ELSET, ELSET=ELEM_1879
1879
*ORIENTATION, NAME=ORI_1879, SYSTEM=RECTANGULAR
-4.87607068, 47.69336266, -197.60602717, -5.18440002, 48.88232840, -196.90510385
3, 0.
*SHELL SECTION, ELSET=ELEM_1879, COMPOSITE, ORIENTATION=ORI_1879
1.36553359, 3, CFRP, 0.
** SOURCE_TET=5872
*ELSET, ELSET=ELEM_1880
1880
*ORIENTATION, NAME=ORI_1880, SYSTEM=RECTANGULAR
-13.41156923, 44.19542843, -198.55511034, -13.94625288, 45.32594277, -197.89476897
3, 0.
*SHELL SECTION, ELSET=ELEM_1880, COMPOSITE, ORIENTATION=ORI_1880
1.36896682, 3, CFRP, 0.
** SOURCE_TET=3951
*ELSET, ELSET=ELEM_1881
1881
*ORIENTATION, NAME=ORI_1881, SYSTEM=RECTANGULAR
-9.07005758, 44.41390236, -198.99161359, -9.46445300, 45.60551766, -198.34007294
3, 0.
*SHELL SECTION, ELSET=ELEM_1881, COMPOSITE, ORIENTATION=ORI_1881
1.37384689, 3, CFRP, 0.
** SOURCE_TET=6371
*ELSET, ELSET=ELEM_1882
1882
*ORIENTATION, NAME=ORI_1882, SYSTEM=RECTANGULAR
1.95748458, 54.34491407, -193.71604044, 1.78674281, 55.51398203, -192.93878415
3, 0.
*SHELL SECTION, ELSET=ELEM_1882, COMPOSITE, ORIENTATION=ORI_1882
1.34151793, 3, CFRP, 0.
** SOURCE_TET=3887
*ELSET, ELSET=ELEM_1883
1883
*ORIENTATION, NAME=ORI_1883, SYSTEM=RECTANGULAR
3.11131647, 59.07573428, -190.36197752, 2.93699204, 60.20460263, -189.52815065
3, 0.
*SHELL SECTION, ELSET=ELEM_1883, COMPOSITE, ORIENTATION=ORI_1883
1.33116972, 3, CFRP, 0.
** SOURCE_TET=4441
*ELSET, ELSET=ELEM_1884
1884
*ORIENTATION, NAME=ORI_1884, SYSTEM=RECTANGULAR
-1.97696639, 62.78126844, -187.49487719, -2.24346709, 63.84991941, -186.60776812
3, 0.
*SHELL SECTION, ELSET=ELEM_1884, COMPOSITE, ORIENTATION=ORI_1884
1.31770146, 3, CFRP, 0.
** SOURCE_TET=3033
*ELSET, ELSET=ELEM_1885
1885
*ORIENTATION, NAME=ORI_1885, SYSTEM=RECTANGULAR
6.72447975, 50.79138913, -195.65008814, 6.72287472, 52.00482483, -194.92374715
3, 0.
*SHELL SECTION, ELSET=ELEM_1885, COMPOSITE, ORIENTATION=ORI_1885
1.35368633, 3, CFRP, 0.
** SOURCE_TET=3170
*ELSET, ELSET=ELEM_1886
1886
*ORIENTATION, NAME=ORI_1886, SYSTEM=RECTANGULAR
4.69022124, 46.42054221, -198.27293369, 4.63795024, 47.66425894, -197.60178807
3, 0.
*SHELL SECTION, ELSET=ELEM_1886, COMPOSITE, ORIENTATION=ORI_1886
1.37231314, 3, CFRP, 0.
** SOURCE_TET=3210
*ELSET, ELSET=ELEM_1887
1887
*ORIENTATION, NAME=ORI_1887, SYSTEM=RECTANGULAR
-0.65725357, 45.57699055, -198.89465218, -0.87860245, 46.81166416, -198.24151685
3, 0.
*SHELL SECTION, ELSET=ELEM_1887, COMPOSITE, ORIENTATION=ORI_1887
1.37311292, 3, CFRP, 0.
** SOURCE_TET=3131
*ELSET, ELSET=ELEM_1888
1888
*ORIENTATION, NAME=ORI_1888, SYSTEM=RECTANGULAR
12.96108337, 52.13176629, -194.08387600, 13.05048093, 53.32142651, -193.32445738
3, 0.
*SHELL SECTION, ELSET=ELEM_1888, COMPOSITE, ORIENTATION=ORI_1888
1.34711409, 3, CFRP, 0.
** SOURCE_TET=5923
*ELSET, ELSET=ELEM_1889
1889
*ORIENTATION, NAME=ORI_1889, SYSTEM=RECTANGULAR
14.36386359, 57.77591862, -190.05229270, 14.40327209, 58.90976557, -189.20799533
3, 0.
*SHELL SECTION, ELSET=ELEM_1889, COMPOSITE, ORIENTATION=ORI_1889
1.32724965, 3, CFRP, 0.
** SOURCE_TET=5035
*ELSET, ELSET=ELEM_1890
1890
*ORIENTATION, NAME=ORI_1890, SYSTEM=RECTANGULAR
9.28280208, 61.17388223, -188.27396507, 9.22880902, 62.28665499, -187.40286144
3, 0.
*SHELL SECTION, ELSET=ELEM_1890, COMPOSITE, ORIENTATION=ORI_1890
1.32298350, 3, CFRP, 0.
** SOURCE_TET=3251
*ELSET, ELSET=ELEM_1891
1891
*ORIENTATION, NAME=ORI_1891, SYSTEM=RECTANGULAR
17.87835677, 48.08300766, -195.54888562, 18.13776575, 49.26544862, -194.81776295
3, 0.
*SHELL SECTION, ELSET=ELEM_1891, COMPOSITE, ORIENTATION=ORI_1891
1.34927535, 3, CFRP, 0.
** SOURCE_TET=3100
*ELSET, ELSET=ELEM_1892
1892
*ORIENTATION, NAME=ORI_1892, SYSTEM=RECTANGULAR
16.89847545, 42.59153365, -198.66301065, 17.15458803, 43.81541283, -198.00230944
3, 0.
*SHELL SECTION, ELSET=ELEM_1892, COMPOSITE, ORIENTATION=ORI_1892
1.36921024, 3, CFRP, 0.
** SOURCE_TET=3225
*ELSET, ELSET=ELEM_1893
1893
*ORIENTATION, NAME=ORI_1893, SYSTEM=RECTANGULAR
11.93111249, 40.79712838, -200.35301877, 12.11742244, 42.05617712, -199.73650853
3, 0.
*SHELL SECTION, ELSET=ELEM_1893, COMPOSITE, ORIENTATION=ORI_1893
1.37997949, 3, CFRP, 0.
** SOURCE_TET=4242
*ELSET, ELSET=ELEM_1894
1894
*ORIENTATION, NAME=ORI_1894, SYSTEM=RECTANGULAR
7.17250335, 42.48492528, -200.08998584, 7.19948796, 43.75430382, -199.46712953
3, 0.
*SHELL SECTION, ELSET=ELEM_1894, COMPOSITE, ORIENTATION=ORI_1894
1.38472068, 3, CFRP, 0.
** SOURCE_TET=5070
*ELSET, ELSET=ELEM_1895
1895
*ORIENTATION, NAME=ORI_1895, SYSTEM=RECTANGULAR
20.94644571, 59.29982545, -187.41212211, 21.09048470, 60.38930463, -186.52201657
3, 0.
*SHELL SECTION, ELSET=ELEM_1895, COMPOSITE, ORIENTATION=ORI_1895
1.31855106, 3, CFRP, 0.
** SOURCE_TET=6215
*ELSET, ELSET=ELEM_1896
1896
*ORIENTATION, NAME=ORI_1896, SYSTEM=RECTANGULAR
25.44063568, 54.84011067, -189.37111941, 25.68154771, 55.93596049, -188.51026252
3, 0.
*SHELL SECTION, ELSET=ELEM_1896, COMPOSITE, ORIENTATION=ORI_1896
1.32273555, 3, CFRP, 0.
** SOURCE_TET=6404
*ELSET, ELSET=ELEM_1897
1897
*ORIENTATION, NAME=ORI_1897, SYSTEM=RECTANGULAR
23.76901055, 49.26722092, -193.46514611, 24.08890364, 50.40954444, -192.69523352
3, 0.
*SHELL SECTION, ELSET=ELEM_1897, COMPOSITE, ORIENTATION=ORI_1897
1.34107137, 3, CFRP, 0.
** SOURCE_TET=5750
*ELSET, ELSET=ELEM_1898
1898
*ORIENTATION, NAME=ORI_1898, SYSTEM=RECTANGULAR
22.28859544, 64.77377959, -182.44544791, 22.32876937, 65.81235638, -181.48641491
3, 0.
*SHELL SECTION, ELSET=ELEM_1898, COMPOSITE, ORIENTATION=ORI_1898
1.30664861, 3, CFRP, 0.
** SOURCE_TET=4364
*ELSET, ELSET=ELEM_1899
1899
*ORIENTATION, NAME=ORI_1899, SYSTEM=RECTANGULAR
15.13371218, 69.10783972, -180.12058205, 15.06329948, 70.10304176, -179.11827723
3, 0.
*SHELL SECTION, ELSET=ELEM_1899, COMPOSITE, ORIENTATION=ORI_1899
1.30340707, 3, CFRP, 0.
** SOURCE_TET=4093
*ELSET, ELSET=ELEM_1900
1900
*ORIENTATION, NAME=ORI_1900, SYSTEM=RECTANGULAR
8.76106468, 66.99563668, -183.34216577, 8.60227997, 68.02505274, -182.38556241
3, 0.
*SHELL SECTION, ELSET=ELEM_1900, COMPOSITE, ORIENTATION=ORI_1900
1.31011307, 3, CFRP, 0.
** SOURCE_TET=2554
*ELSET, ELSET=ELEM_1901
1901
*ORIENTATION, NAME=ORI_1901, SYSTEM=RECTANGULAR
-4.17600510, 20.47612996, -207.77054186, -4.51060810, 21.81607287, -207.46624950
3, 0.
*SHELL SECTION, ELSET=ELEM_1901, COMPOSITE, ORIENTATION=ORI_1901
1.59155309, 3, CFRP, 0.
** SOURCE_TET=2117
*ELSET, ELSET=ELEM_1902
1902
*ORIENTATION, NAME=ORI_1902, SYSTEM=RECTANGULAR
-2.16706550, 21.51412444, -207.61363825, -2.33897674, 22.88187473, -207.29787624
3, 0.
*SHELL SECTION, ELSET=ELEM_1902, COMPOSITE, ORIENTATION=ORI_1902
1.59274566, 3, CFRP, 0.
** SOURCE_TET=2881
*ELSET, ELSET=ELEM_1903
1903
*ORIENTATION, NAME=ORI_1903, SYSTEM=RECTANGULAR
-0.38220739, 20.60655717, -207.83260076, -0.46352778, 21.98613594, -207.53235181
3, 0.
*SHELL SECTION, ELSET=ELEM_1903, COMPOSITE, ORIENTATION=ORI_1903
1.60769129, 3, CFRP, 0.
** SOURCE_TET=4725
*ELSET, ELSET=ELEM_1904
1904
*ORIENTATION, NAME=ORI_1904, SYSTEM=RECTANGULAR
-6.00824702, 21.65910253, -207.42090800, -6.41742337, 22.97244227, -207.09271078
3, 0.
*SHELL SECTION, ELSET=ELEM_1904, COMPOSITE, ORIENTATION=ORI_1904
1.57016563, 3, CFRP, 0.
** SOURCE_TET=3597
*ELSET, ELSET=ELEM_1905
1905
*ORIENTATION, NAME=ORI_1905, SYSTEM=RECTANGULAR
-8.00395623, 20.65934950, -207.49299421, -8.57049172, 21.91436109, -207.17052955
3, 0.
*SHELL SECTION, ELSET=ELEM_1905, COMPOSITE, ORIENTATION=ORI_1905
1.57192171, 3, CFRP, 0.
** SOURCE_TET=7246
*ELSET, ELSET=ELEM_1906
1906
*ORIENTATION, NAME=ORI_1906, SYSTEM=RECTANGULAR
-8.19848625, 18.48159826, -207.91430831, -8.80442204, 19.72468656, -207.61838046
3, 0.
*SHELL SECTION, ELSET=ELEM_1906, COMPOSITE, ORIENTATION=ORI_1906
1.59902406, 3, CFRP, 0.
** SOURCE_TET=5775
*ELSET, ELSET=ELEM_1907
1907
*ORIENTATION, NAME=ORI_1907, SYSTEM=RECTANGULAR
29.50094763, 65.51066532, -179.08787833, 29.61719160, 66.49684708, -178.08093600
3, 0.
*SHELL SECTION, ELSET=ELEM_1907, COMPOSITE, ORIENTATION=ORI_1907
1.30069697, 3, CFRP, 0.
** SOURCE_TET=5728
*ELSET, ELSET=ELEM_1908
1908
*ORIENTATION, NAME=ORI_1908, SYSTEM=RECTANGULAR
35.41607700, 59.90281648, -181.32416161, 35.68514049, 60.89107669, -180.34899670
3, 0.
*SHELL SECTION, ELSET=ELEM_1908, COMPOSITE, ORIENTATION=ORI_1908
1.30465233, 3, CFRP, 0.
** SOURCE_TET=3847
*ELSET, ELSET=ELEM_1909
1909
*ORIENTATION, NAME=ORI_1909, SYSTEM=RECTANGULAR
32.69188850, 54.71180807, -186.64271111, 32.99282988, 55.76335463, -185.74622681
3, 0.
*SHELL SECTION, ELSET=ELEM_1909, COMPOSITE, ORIENTATION=ORI_1909
1.31705999, 3, CFRP, 0.
** SOURCE_TET=5836
*ELSET, ELSET=ELEM_1910
1910
*ORIENTATION, NAME=ORI_1910, SYSTEM=RECTANGULAR
21.66634977, 38.68507046, -199.45688664, 22.13234670, 39.86092169, -198.82425661
3, 0.
*SHELL SECTION, ELSET=ELEM_1910, COMPOSITE, ORIENTATION=ORI_1910
1.37719381, 3, CFRP, 0.
** SOURCE_TET=3635
*ELSET, ELSET=ELEM_1911
1911
*ORIENTATION, NAME=ORI_1911, SYSTEM=RECTANGULAR
26.97529036, 39.55805013, -197.61204234, 27.49537228, 40.68330497, -196.93136890
3, 0.
*SHELL SECTION, ELSET=ELEM_1911, COMPOSITE, ORIENTATION=ORI_1911
1.36593640, 3, CFRP, 0.
** SOURCE_TET=4849
*ELSET, ELSET=ELEM_1912
1912
*ORIENTATION, NAME=ORI_1912, SYSTEM=RECTANGULAR
28.07678856, 44.68632368, -194.73130151, 28.50528384, 45.80580283, -193.98086281
3, 0.
*SHELL SECTION, ELSET=ELEM_1912, COMPOSITE, ORIENTATION=ORI_1912
1.34570611, 3, CFRP, 0.
** SOURCE_TET=4727
*ELSET, ELSET=ELEM_1913
1913
*ORIENTATION, NAME=ORI_1913, SYSTEM=RECTANGULAR
15.77998576, 74.92504404, -173.56587429, 15.65497958, 75.84302942, -172.49738176
3, 0.
*SHELL SECTION, ELSET=ELEM_1913, COMPOSITE, ORIENTATION=ORI_1913
1.29218006, 3, CFRP, 0.
** SOURCE_TET=5078
*ELSET, ELSET=ELEM_1914
1914
*ORIENTATION, NAME=ORI_1914, SYSTEM=RECTANGULAR
24.75542569, 76.20540540, -169.04130860, 24.67276617, 77.08100211, -167.93383498
3, 0.
*SHELL SECTION, ELSET=ELEM_1914, COMPOSITE, ORIENTATION=ORI_1914
1.28825212, 3, CFRP, 0.
** SOURCE_TET=3834
*ELSET, ELSET=ELEM_1915
1915
*ORIENTATION, NAME=ORI_1915, SYSTEM=RECTANGULAR
31.32085492, 71.11837459, -172.23522834, 31.36593032, 72.01956900, -171.14627617
3, 0.
*SHELL SECTION, ELSET=ELEM_1915, COMPOSITE, ORIENTATION=ORI_1915
1.29331088, 3, CFRP, 0.
** SOURCE_TET=507
*ELSET, ELSET=ELEM_1916
1916
*ORIENTATION, NAME=ORI_1916, SYSTEM=RECTANGULAR
-1.99262618, 24.14025276, -206.99040270, -2.21522119, 25.49056465, -206.63387882
3, 0.
*SHELL SECTION, ELSET=ELEM_1916, COMPOSITE, ORIENTATION=ORI_1916
1.54889500, 3, CFRP, 0.
** SOURCE_TET=2497
*ELSET, ELSET=ELEM_1917
1917
*ORIENTATION, NAME=ORI_1917, SYSTEM=RECTANGULAR
-5.93806898, 24.28815418, -206.79305480, -6.32480752, 25.59791821, -206.42569735
3, 0.
*SHELL SECTION, ELSET=ELEM_1917, COMPOSITE, ORIENTATION=ORI_1917
1.53973901, 3, CFRP, 0.
** SOURCE_TET=1136
*ELSET, ELSET=ELEM_1918
1918
*ORIENTATION, NAME=ORI_1918, SYSTEM=RECTANGULAR
-3.96648447, 25.75506332, -206.50388359, -4.26731389, 27.08561419, -206.13087414
3, 0.
*SHELL SECTION, ELSET=ELEM_1918, COMPOSITE, ORIENTATION=ORI_1918
1.52837646, 3, CFRP, 0.
** SOURCE_TET=833
*ELSET, ELSET=ELEM_1919
1919
*ORIENTATION, NAME=ORI_1919, SYSTEM=RECTANGULAR
-0.06077102, 25.65416847, -206.61519280, -0.10225602, 27.01915958, -206.24766284
3, 0.
*SHELL SECTION, ELSET=ELEM_1919, COMPOSITE, ORIENTATION=ORI_1919
1.53130138, 3, CFRP, 0.
** SOURCE_TET=2470
*ELSET, ELSET=ELEM_1920
1920
*ORIENTATION, NAME=ORI_1920, SYSTEM=RECTANGULAR
1.81412415, 24.14013649, -206.99587053, 1.86104826, 25.50784644, -206.63926483
3, 0.
*SHELL SECTION, ELSET=ELEM_1920, COMPOSITE, ORIENTATION=ORI_1920
1.54677403, 3, CFRP, 0.
** SOURCE_TET=3882
*ELSET, ELSET=ELEM_1921
1921
*ORIENTATION, NAME=ORI_1921, SYSTEM=RECTANGULAR
1.61233321, 21.76254230, -207.57529566, 1.66990927, 23.13872925, -207.25467987
3, 0.
*SHELL SECTION, ELSET=ELEM_1921, COMPOSITE, ORIENTATION=ORI_1921
1.57640505, 3, CFRP, 0.
** SOURCE_TET=3319
*ELSET, ELSET=ELEM_1922
1922
*ORIENTATION, NAME=ORI_1922, SYSTEM=RECTANGULAR
-9.92800402, 21.84788811, -207.05526026, -10.55176210, 23.06777634, -206.70483399
3, 0.
*SHELL SECTION, ELSET=ELEM_1922, COMPOSITE, ORIENTATION=ORI_1922
1.54922390, 3, CFRP, 0.
** SOURCE_TET=462
*ELSET, ELSET=ELEM_1923
1923
*ORIENTATION, NAME=ORI_1923, SYSTEM=RECTANGULAR
-10.71853137, 24.50232539, -206.32673016, -11.30454961, 25.72718632, -205.93138434
3, 0.
*SHELL SECTION, ELSET=ELEM_1923, COMPOSITE, ORIENTATION=ORI_1923
1.50947356, 3, CFRP, 0.
** SOURCE_TET=987
*ELSET, ELSET=ELEM_1924
1924
*ORIENTATION, NAME=ORI_1924, SYSTEM=RECTANGULAR
-8.72469362, 25.93887885, -206.11940340, -9.22905140, 27.19808253, -205.71936676
3, 0.
*SHELL SECTION, ELSET=ELEM_1924, COMPOSITE, ORIENTATION=ORI_1924
1.50322449, 3, CFRP, 0.
** SOURCE_TET=1683
*ELSET, ELSET=ELEM_1925
1925
*ORIENTATION, NAME=ORI_1925, SYSTEM=RECTANGULAR
-11.94479481, 20.83323434, -207.05220650, -12.65467677, 22.00559750, -206.70344837
3, 0.
*SHELL SECTION, ELSET=ELEM_1925, COMPOSITE, ORIENTATION=ORI_1925
1.54953456, 3, CFRP, 0.
** SOURCE_TET=2144
*ELSET, ELSET=ELEM_1926
1926
*ORIENTATION, NAME=ORI_1926, SYSTEM=RECTANGULAR
-11.99442763, 18.59405658, -207.49980734, -12.78534756, 19.72124914, -207.17749911
3, 0.
*SHELL SECTION, ELSET=ELEM_1926, COMPOSITE, ORIENTATION=ORI_1926
1.58532453, 3, CFRP, 0.
** SOURCE_TET=2606
*ELSET, ELSET=ELEM_1927
1927
*ORIENTATION, NAME=ORI_1927, SYSTEM=RECTANGULAR
-10.17005030, 17.42857818, -207.92153539, -10.91812454, 18.59187410, -207.62636166
3, 0.
*SHELL SECTION, ELSET=ELEM_1927, COMPOSITE, ORIENTATION=ORI_1927
1.61450219, 3, CFRP, 0.
** SOURCE_TET=4009
*ELSET, ELSET=ELEM_1928
1928
*ORIENTATION, NAME=ORI_1928, SYSTEM=RECTANGULAR
8.34642612, 79.17131840, -169.71460600, 8.09560283, 80.02183349, -168.61292013
3, 0.
*SHELL SECTION, ELSET=ELEM_1928, COMPOSITE, ORIENTATION=ORI_1928
1.29020441, 3, CFRP, 0.
** SOURCE_TET=4228
*ELSET, ELSET=ELEM_1929
1929
*ORIENTATION, NAME=ORI_1929, SYSTEM=RECTANGULAR
-0.88376894, 77.53151911, -172.40278982, -1.19961487, 78.39172309, -171.32562203
3, 0.
*SHELL SECTION, ELSET=ELEM_1929, COMPOSITE, ORIENTATION=ORI_1929
1.29263461, 3, CFRP, 0.
** SOURCE_TET=4234
*ELSET, ELSET=ELEM_1930
1930
*ORIENTATION, NAME=ORI_1930, SYSTEM=RECTANGULAR
-3.53936122, 72.08494400, -178.62280542, -3.89940465, 73.00611271, -177.61195581
3, 0.
*SHELL SECTION, ELSET=ELEM_1930, COMPOSITE, ORIENTATION=ORI_1930
1.30053091, 3, CFRP, 0.
** SOURCE_TET=4701
*ELSET, ELSET=ELEM_1931
1931
*ORIENTATION, NAME=ORI_1931, SYSTEM=RECTANGULAR
1.24831871, 68.13149447, -182.76984231, 0.99982348, 69.12425115, -181.79378683
3, 0.
*SHELL SECTION, ELSET=ELEM_1931, COMPOSITE, ORIENTATION=ORI_1931
1.30919147, 3, CFRP, 0.
** SOURCE_TET=5702
*ELSET, ELSET=ELEM_1932
1932
*ORIENTATION, NAME=ORI_1932, SYSTEM=RECTANGULAR
9.75119010, 84.46629880, -161.79026109, 9.46130550, 85.20775343, -160.62141039
3, 0.
*SHELL SECTION, ELSET=ELEM_1932, COMPOSITE, ORIENTATION=ORI_1932
1.28199768, 3, CFRP, 0.
** SOURCE_TET=5855
*ELSET, ELSET=ELEM_1933
1933
*ORIENTATION, NAME=ORI_1933, SYSTEM=RECTANGULAR
19.09197389, 85.14539657, -157.81289874, 18.84849951, 85.85243063, -156.61255584
3, 0.
*SHELL SECTION, ELSET=ELEM_1933, COMPOSITE, ORIENTATION=ORI_1933
1.27841973, 3, CFRP, 0.
** SOURCE_TET=6100
*ELSET, ELSET=ELEM_1934
1934
*ORIENTATION, NAME=ORI_1934, SYSTEM=RECTANGULAR
26.64565511, 81.12159299, -161.19509806, 26.50587328, 81.89487921, -160.01930494
3, 0.
*SHELL SECTION, ELSET=ELEM_1934, COMPOSITE, ORIENTATION=ORI_1934
1.28275180, 3, CFRP, 0.
** SOURCE_TET=3441
*ELSET, ELSET=ELEM_1935
1935
*ORIENTATION, NAME=ORI_1935, SYSTEM=RECTANGULAR
-69.00045603, 20.64223084, -179.02802259, -69.98872165, 20.61607903, -178.01676241
3, 0.
*SHELL SECTION, ELSET=ELEM_1935, COMPOSITE, ORIENTATION=ORI_1935
1.30290949, 3, CFRP, 0.
** SOURCE_TET=6426
*ELSET, ELSET=ELEM_1936
1936
*ORIENTATION, NAME=ORI_1936, SYSTEM=RECTANGULAR
-66.48754871, 27.17749253, -179.23910953, -67.47524954, 27.26072599, -178.23038794
3, 0.
*SHELL SECTION, ELSET=ELEM_1936, COMPOSITE, ORIENTATION=ORI_1936
1.30009270, 3, CFRP, 0.
** SOURCE_TET=6486
*ELSET, ELSET=ELEM_1937
1937
*ORIENTATION, NAME=ORI_1937, SYSTEM=RECTANGULAR
-56.09471242, 51.83997669, -173.99370685, -56.96199511, 52.19114210, -172.93328072
3, 0.
*SHELL SECTION, ELSET=ELEM_1937, COMPOSITE, ORIENTATION=ORI_1937
1.29396570, 3, CFRP, 0.
** SOURCE_TET=7334
*ELSET, ELSET=ELEM_1938
1938
*ORIENTATION, NAME=ORI_1938, SYSTEM=RECTANGULAR
-62.45454008, 45.94547571, -172.54549233, -63.34311836, 46.17205278, -171.46888122
3, 0.
*SHELL SECTION, ELSET=ELEM_1938, COMPOSITE, ORIENTATION=ORI_1938
1.29258251, 3, CFRP, 0.
** SOURCE_TET=4751
*ELSET, ELSET=ELEM_1939
1939
*ORIENTATION, NAME=ORI_1939, SYSTEM=RECTANGULAR
-62.83651002, 39.25886700, -176.69875065, -63.77543759, 39.47480735, -175.66348026
3, 0.
*SHELL SECTION, ELSET=ELEM_1939, COMPOSITE, ORIENTATION=ORI_1939
1.29670382, 3, CFRP, 0.
** SOURCE_TET=6430
*ELSET, ELSET=ELEM_1940
1940
*ORIENTATION, NAME=ORI_1940, SYSTEM=RECTANGULAR
-54.74796628, 58.85011901, -168.83623957, -55.53009922, 59.21283850, -167.71521207
3, 0.
*SHELL SECTION, ELSET=ELEM_1940, COMPOSITE, ORIENTATION=ORI_1940
1.28835654, 3, CFRP, 0.
** SOURCE_TET=6221
*ELSET, ELSET=ELEM_1941
1941
*ORIENTATION, NAME=ORI_1941, SYSTEM=RECTANGULAR
-47.59488208, 63.92687644, -169.77272775, -48.35812070, 64.37748400, -168.67072066
3, 0.
*SHELL SECTION, ELSET=ELEM_1941, COMPOSITE, ORIENTATION=ORI_1941
1.28907514, 3, CFRP, 0.
** SOURCE_TET=4402
*ELSET, ELSET=ELEM_1942
1942
*ORIENTATION, NAME=ORI_1942, SYSTEM=RECTANGULAR
-42.76947563, 61.42392097, -175.80750417, -43.55057522, 61.96956658, -174.76244231
3, 0.
*SHELL SECTION, ELSET=ELEM_1942, COMPOSITE, ORIENTATION=ORI_1942
1.29458857, 3, CFRP, 0.
** SOURCE_TET=1610
*ELSET, ELSET=ELEM_1943
1943
*ORIENTATION, NAME=ORI_1943, SYSTEM=RECTANGULAR
-20.16901496, 1.51681017, -207.91234531, -21.55084927, 1.57133518, -207.61643825
3, 0.
*SHELL SECTION, ELSET=ELEM_1943, COMPOSITE, ORIENTATION=ORI_1943
1.61984611, 3, CFRP, 0.
** SOURCE_TET=2564
*ELSET, ELSET=ELEM_1944
1944
*ORIENTATION, NAME=ORI_1944, SYSTEM=RECTANGULAR
-18.27421016, 0.77316837, -208.29841138, -19.66231400, 0.80288884, -208.02955378
3, 0.
*SHELL SECTION, ELSET=ELEM_1944, COMPOSITE, ORIENTATION=ORI_1944
1.65428984, 3, CFRP, 0.
** SOURCE_TET=1040
*ELSET, ELSET=ELEM_1945
1945
*ORIENTATION, NAME=ORI_1945, SYSTEM=RECTANGULAR
-17.42215757, -1.25873976, -208.44819446, -18.80932862, -1.34230039, -208.18594630
3, 0.
*SHELL SECTION, ELSET=ELEM_1945, COMPOSITE, ORIENTATION=ORI_1945
1.67166877, 3, CFRP, 0.
** SOURCE_TET=3266
*ELSET, ELSET=ELEM_1946
1946
*ORIENTATION, NAME=ORI_1946, SYSTEM=RECTANGULAR
-24.49554171, 2.50070896, -206.89882124, -25.86246048, 2.56203183, -206.54136832
3, 0.
*SHELL SECTION, ELSET=ELEM_1946, COMPOSITE, ORIENTATION=ORI_1946
1.54108405, 3, CFRP, 0.
** SOURCE_TET=2093
*ELSET, ELSET=ELEM_1947
1947
*ORIENTATION, NAME=ORI_1947, SYSTEM=RECTANGULAR
-23.01479162, 4.24489712, -207.19947057, -24.37937719, 4.39499855, -206.85980046
3, 0.
*SHELL SECTION, ELSET=ELEM_1947, COMPOSITE, ORIENTATION=ORI_1947
1.55539560, 3, CFRP, 0.
** SOURCE_TET=1002
*ELSET, ELSET=ELEM_1948
1948
*ORIENTATION, NAME=ORI_1948, SYSTEM=RECTANGULAR
-20.85081007, 3.72878012, -207.71005992, -22.22224720, 3.88116390, -207.40031907
3, 0.
*SHELL SECTION, ELSET=ELEM_1948, COMPOSITE, ORIENTATION=ORI_1948
1.58409989, 3, CFRP, 0.
** SOURCE_TET=1164
*ELSET, ELSET=ELEM_1949
1949
*ORIENTATION, NAME=ORI_1949, SYSTEM=RECTANGULAR
-26.91419744, 3.09868817, -206.23170615, -28.27091922, 3.15173820, -205.83611581
3, 0.
*SHELL SECTION, ELSET=ELEM_1949, COMPOSITE, ORIENTATION=ORI_1949
1.49863052, 3, CFRP, 0.
** SOURCE_TET=1655
*ELSET, ELSET=ELEM_1950
1950
*ORIENTATION, NAME=ORI_1950, SYSTEM=RECTANGULAR
-28.81878187, 1.00361850, -205.70332322, -30.16888926, 0.96787372, -205.28388031
3, 0.
*SHELL SECTION, ELSET=ELEM_1950, COMPOSITE, ORIENTATION=ORI_1950
1.48405194, 3, CFRP, 0.
** SOURCE_TET=1338
*ELSET, ELSET=ELEM_1951
1951
*ORIENTATION, NAME=ORI_1951, SYSTEM=RECTANGULAR
-27.75509422, -1.22174105, -206.03427645, -29.09847228, -1.39198032, -205.62641131
3, 0.
*SHELL SECTION, ELSET=ELEM_1951, COMPOSITE, ORIENTATION=ORI_1951
1.49194789, 3, CFRP, 0.
** SOURCE_TET=7396
*ELSET, ELSET=ELEM_1952
1952
*ORIENTATION, NAME=ORI_1952, SYSTEM=RECTANGULAR
-63.22536289, -48.91173311, -169.23334148, -63.65475323, -49.66720658, -168.11759788
3, 0.
*SHELL SECTION, ELSET=ELEM_1952, COMPOSITE, ORIENTATION=ORI_1952
1.29049242, 3, CFRP, 0.
** SOURCE_TET=4824
*ELSET, ELSET=ELEM_1953
1953
*ORIENTATION, NAME=ORI_1953, SYSTEM=RECTANGULAR
-56.41583593, -53.38521180, -172.45288754, -56.82735392, -54.19415090, -171.36832749
3, 0.
*SHELL SECTION, ELSET=ELEM_1953, COMPOSITE, ORIENTATION=ORI_1953
1.29333782, 3, CFRP, 0.
** SOURCE_TET=4965
*ELSET, ELSET=ELEM_1954
1954
*ORIENTATION, NAME=ORI_1954, SYSTEM=RECTANGULAR
-66.11057691, -41.17348489, -172.11055583, -66.66201307, -41.88497670, -171.01982326
3, 0.
*SHELL SECTION, ELSET=ELEM_1954, COMPOSITE, ORIENTATION=ORI_1954
1.29283786, 3, CFRP, 0.
** SOURCE_TET=5917
*ELSET, ELSET=ELEM_1955
1955
*ORIENTATION, NAME=ORI_1955, SYSTEM=RECTANGULAR
-52.62978644, -50.81107023, -177.84063995, -53.10231626, -51.65738880, -176.81085335
3, 0.
*SHELL SECTION, ELSET=ELEM_1955, COMPOSITE, ORIENTATION=ORI_1955
1.29898179, 3, CFRP, 0.
** SOURCE_TET=1029
*ELSET, ELSET=ELEM_1956
1956
*ORIENTATION, NAME=ORI_1956, SYSTEM=RECTANGULAR
-13.89228768, 22.26891251, -206.46539856, -14.68176463, 23.37808111, -206.08268308
3, 0.
*SHELL SECTION, ELSET=ELEM_1956, COMPOSITE, ORIENTATION=ORI_1956
1.51873279, 3, CFRP, 0.
** SOURCE_TET=712
*ELSET, ELSET=ELEM_1957
1957
*ORIENTATION, NAME=ORI_1957, SYSTEM=RECTANGULAR
-13.42276854, 24.87050436, -205.89200322, -14.12214974, 26.02812653, -205.47875167
3, 0.
*SHELL SECTION, ELSET=ELEM_1957, COMPOSITE, ORIENTATION=ORI_1957
1.49701273, 3, CFRP, 0.
** SOURCE_TET=1414
*ELSET, ELSET=ELEM_1958
1958
*ORIENTATION, NAME=ORI_1958, SYSTEM=RECTANGULAR
-16.35847997, 21.42912721, -206.25043994, -17.25866945, 22.44904705, -205.86388797
3, 0.
*SHELL SECTION, ELSET=ELEM_1958, COMPOSITE, ORIENTATION=ORI_1958
1.51673806, 3, CFRP, 0.
** SOURCE_TET=1852
*ELSET, ELSET=ELEM_1959
1959
*ORIENTATION, NAME=ORI_1959, SYSTEM=RECTANGULAR
-16.59820248, 19.27032622, -206.69005253, -17.54155369, 20.25324445, -206.31063158
3, 0.
*SHELL SECTION, ELSET=ELEM_1959, COMPOSITE, ORIENTATION=ORI_1959
1.53229380, 3, CFRP, 0.
** SOURCE_TET=3784
*ELSET, ELSET=ELEM_1960
1960
*ORIENTATION, NAME=ORI_1960, SYSTEM=RECTANGULAR
-14.17897704, 17.87021032, -207.33339147, -15.09240352, 18.89890551, -207.00561372
3, 0.
*SHELL SECTION, ELSET=ELEM_1960, COMPOSITE, ORIENTATION=ORI_1960
1.56240082, 3, CFRP, 0.
** SOURCE_TET=1653
*ELSET, ELSET=ELEM_1961
1961
*ORIENTATION, NAME=ORI_1961, SYSTEM=RECTANGULAR
4.13977163, -29.73217809, -205.29194845, 4.41106944, -31.05234206, -204.86350407
3, 0.
*SHELL SECTION, ELSET=ELEM_1961, COMPOSITE, ORIENTATION=ORI_1961
1.46856368, 3, CFRP, 0.
** SOURCE_TET=7216
*ELSET, ELSET=ELEM_1962
1962
*ORIENTATION, NAME=ORI_1962, SYSTEM=RECTANGULAR
5.55941773, -24.85740529, -206.64965254, 5.94698168, -26.16603962, -206.27915237
3, 0.
*SHELL SECTION, ELSET=ELEM_1962, COMPOSITE, ORIENTATION=ORI_1962
1.51443505, 3, CFRP, 0.
** SOURCE_TET=1948
*ELSET, ELSET=ELEM_1963
1963
*ORIENTATION, NAME=ORI_1963, SYSTEM=RECTANGULAR
6.36961266, -28.49387993, -205.58738195, 6.71737262, -29.79546123, -205.15732485
3, 0.
*SHELL SECTION, ELSET=ELEM_1963, COMPOSITE, ORIENTATION=ORI_1963
1.47511435, 3, CFRP, 0.
** SOURCE_TET=2447
*ELSET, ELSET=ELEM_1964
1964
*ORIENTATION, NAME=ORI_1964, SYSTEM=RECTANGULAR
-0.36015891, -32.61504929, -204.48345430, -0.29606752, -33.94450319, -204.00549548
3, 0.
*SHELL SECTION, ELSET=ELEM_1964, COMPOSITE, ORIENTATION=ORI_1964
1.44506633, 3, CFRP, 0.
** SOURCE_TET=2152
*ELSET, ELSET=ELEM_1965
1965
*ORIENTATION, NAME=ORI_1965, SYSTEM=RECTANGULAR
3.24150332, -33.25973604, -204.18549969, 3.48173155, -34.56399615, -203.69438262
3, 0.
*SHELL SECTION, ELSET=ELEM_1965, COMPOSITE, ORIENTATION=ORI_1965
1.44595802, 3, CFRP, 0.
** SOURCE_TET=2104
*ELSET, ELSET=ELEM_1966
1966
*ORIENTATION, NAME=ORI_1966, SYSTEM=RECTANGULAR
-6.77998322, -32.30437762, -204.29837954, -6.98067271, -33.61732960, -203.81270390
3, 0.
*SHELL SECTION, ELSET=ELEM_1966, COMPOSITE, ORIENTATION=ORI_1966
1.44389451, 3, CFRP, 0.
** SOURCE_TET=2624
*ELSET, ELSET=ELEM_1967
1967
*ORIENTATION, NAME=ORI_1967, SYSTEM=RECTANGULAR
-5.68191444, -28.77343379, -205.56143452, -5.86172782, -30.10859449, -205.13130306
3, 0.
*SHELL SECTION, ELSET=ELEM_1967, COMPOSITE, ORIENTATION=ORI_1967
1.48072028, 3, CFRP, 0.
** SOURCE_TET=3041
*ELSET, ELSET=ELEM_1968
1968
*ORIENTATION, NAME=ORI_1968, SYSTEM=RECTANGULAR
-3.42209628, -34.68413188, -203.62761562, -3.43566510, -36.00465894, -203.12162732
3, 0.
*SHELL SECTION, ELSET=ELEM_1968, COMPOSITE, ORIENTATION=ORI_1968
1.43175125, 3, CFRP, 0.
** SOURCE_TET=2944
*ELSET, ELSET=ELEM_1969
1969
*ORIENTATION, NAME=ORI_1969, SYSTEM=RECTANGULAR
-11.79810522, -26.01766433, -205.77745753, -12.27077427, -27.28154552, -205.35415113
3, 0.
*SHELL SECTION, ELSET=ELEM_1969, COMPOSITE, ORIENTATION=ORI_1969
1.48558199, 3, CFRP, 0.
** SOURCE_TET=3150
*ELSET, ELSET=ELEM_1970
1970
*ORIENTATION, NAME=ORI_1970, SYSTEM=RECTANGULAR
-10.69673798, -33.71184847, -203.40140007, -10.98544035, -35.00118476, -202.89715522
3, 0.
*SHELL SECTION, ELSET=ELEM_1970, COMPOSITE, ORIENTATION=ORI_1970
1.42993164, 3, CFRP, 0.
** SOURCE_TET=2762
*ELSET, ELSET=ELEM_1971
1971
*ORIENTATION, NAME=ORI_1971, SYSTEM=RECTANGULAR
-13.40582764, -29.79375912, -204.39101810, -13.81886168, -31.05856654, -203.91178427
3, 0.
*SHELL SECTION, ELSET=ELEM_1971, COMPOSITE, ORIENTATION=ORI_1971
1.44554102, 3, CFRP, 0.
** SOURCE_TET=2289
*ELSET, ELSET=ELEM_1972
1972
*ORIENTATION, NAME=ORI_1972, SYSTEM=RECTANGULAR
-3.29516452, -38.54682445, -202.10291313, -3.27975049, -39.85009310, -201.55404773
3, 0.
*SHELL SECTION, ELSET=ELEM_1972, COMPOSITE, ORIENTATION=ORI_1972
1.41225255, 3, CFRP, 0.
** SOURCE_TET=2934
*ELSET, ELSET=ELEM_1973
1973
*ORIENTATION, NAME=ORI_1973, SYSTEM=RECTANGULAR
5.57238352, -35.93493674, -203.05810688, 5.87615102, -37.21104677, -202.52964827
3, 0.
*SHELL SECTION, ELSET=ELEM_1973, COMPOSITE, ORIENTATION=ORI_1973
1.41850114, 3, CFRP, 0.
** SOURCE_TET=2355
*ELSET, ELSET=ELEM_1974
1974
*ORIENTATION, NAME=ORI_1974, SYSTEM=RECTANGULAR
0.10783395, -40.43795690, -201.36166841, 0.27664202, -41.72104521, -200.79141564
3, 0.
*SHELL SECTION, ELSET=ELEM_1974, COMPOSITE, ORIENTATION=ORI_1974
1.39982152, 3, CFRP, 0.
** SOURCE_TET=2872
*ELSET, ELSET=ELEM_1975
1975
*ORIENTATION, NAME=ORI_1975, SYSTEM=RECTANGULAR
4.02046775, -39.35102305, -201.72870979, 4.28428703, -40.62257371, -201.16874701
3, 0.
*SHELL SECTION, ELSET=ELEM_1975, COMPOSITE, ORIENTATION=ORI_1975
1.40355587, 3, CFRP, 0.
** SOURCE_TET=511
*ELSET, ELSET=ELEM_1976
1976
*ORIENTATION, NAME=ORI_1976, SYSTEM=RECTANGULAR
-16.31972613, -18.41619986, -206.90104892, -17.19238700, -19.47011948, -206.54367457
3, 0.
*SHELL SECTION, ELSET=ELEM_1976, COMPOSITE, ORIENTATION=ORI_1976
1.53742361, 3, CFRP, 0.
** SOURCE_TET=291
*ELSET, ELSET=ELEM_1977
1977
*ORIENTATION, NAME=ORI_1977, SYSTEM=RECTANGULAR
-14.26518058, -18.80106412, -207.15256184, -15.03959600, -19.93295018, -206.80743185
3, 0.
*SHELL SECTION, ELSET=ELEM_1977, COMPOSITE, ORIENTATION=ORI_1977
1.55527472, 3, CFRP, 0.
** SOURCE_TET=100
*ELSET, ELSET=ELEM_1978
1978
*ORIENTATION, NAME=ORI_1978, SYSTEM=RECTANGULAR
-12.88731641, -17.04563443, -207.67173715, -13.69908185, -18.16053079, -207.35861897
3, 0.
*SHELL SECTION, ELSET=ELEM_1978, COMPOSITE, ORIENTATION=ORI_1978
1.60392821, 3, CFRP, 0.
** SOURCE_TET=7174
*ELSET, ELSET=ELEM_1979
1979
*ORIENTATION, NAME=ORI_1979, SYSTEM=RECTANGULAR
-18.15108962, -20.30216668, -206.18918789, -18.96583219, -21.38722715, -205.79064266
3, 0.
*SHELL SECTION, ELSET=ELEM_1979, COMPOSITE, ORIENTATION=ORI_1979
1.49688172, 3, CFRP, 0.
** SOURCE_TET=1361
*ELSET, ELSET=ELEM_1980
1980
*ORIENTATION, NAME=ORI_1980, SYSTEM=RECTANGULAR
-20.68369276, -18.53826977, -206.01166872, -21.61830897, -19.51443706, -205.59502744
3, 0.
*SHELL SECTION, ELSET=ELEM_1980, COMPOSITE, ORIENTATION=ORI_1980
1.49063754, 3, CFRP, 0.
** SOURCE_TET=2188
*ELSET, ELSET=ELEM_1981
1981
*ORIENTATION, NAME=ORI_1981, SYSTEM=RECTANGULAR
-27.08646926, -9.23304708, -205.77758885, -28.33371880, -9.75526048, -205.36326803
3, 0.
*SHELL SECTION, ELSET=ELEM_1981, COMPOSITE, ORIENTATION=ORI_1981
1.47968018, 3, CFRP, 0.
** SOURCE_TET=2157
*ELSET, ELSET=ELEM_1982
1982
*ORIENTATION, NAME=ORI_1982, SYSTEM=RECTANGULAR
-25.45509943, -12.18627976, -205.87622393, -26.62295417, -12.86950909, -205.46474735
3, 0.
*SHELL SECTION, ELSET=ELEM_1982, COMPOSITE, ORIENTATION=ORI_1982
1.48512912, 3, CFRP, 0.
** SOURCE_TET=1391
*ELSET, ELSET=ELEM_1983
1983
*ORIENTATION, NAME=ORI_1983, SYSTEM=RECTANGULAR
-22.80157965, -12.21886585, -206.56347841, -23.96666429, -12.92106415, -206.17683215
3, 0.
*SHELL SECTION, ELSET=ELEM_1983, COMPOSITE, ORIENTATION=ORI_1983
1.52054751, 3, CFRP, 0.
** SOURCE_TET=2951
*ELSET, ELSET=ELEM_1984
1984
*ORIENTATION, NAME=ORI_1984, SYSTEM=RECTANGULAR
-30.26416098, -8.55614553, -204.87088170, -31.51363020, -9.03345945, -204.41153643
3, 0.
*SHELL SECTION, ELSET=ELEM_1984, COMPOSITE, ORIENTATION=ORI_1984
1.45915174, 3, CFRP, 0.
** SOURCE_TET=2229
*ELSET, ELSET=ELEM_1985
1985
*ORIENTATION, NAME=ORI_1985, SYSTEM=RECTANGULAR
-31.01260498, -5.23447068, -204.86754357, -32.30786000, -5.56939030, -204.40912971
3, 0.
*SHELL SECTION, ELSET=ELEM_1985, COMPOSITE, ORIENTATION=ORI_1985
1.45160317, 3, CFRP, 0.
** SOURCE_TET=1794
*ELSET, ELSET=ELEM_1986
1986
*ORIENTATION, NAME=ORI_1986, SYSTEM=RECTANGULAR
-28.54788905, -3.68206887, -205.73360839, -29.87226299, -3.94049315, -205.31022849
3, 0.
*SHELL SECTION, ELSET=ELEM_1986, COMPOSITE, ORIENTATION=ORI_1986
1.48373175, 3, CFRP, 0.
** SOURCE_TET=2972
*ELSET, ELSET=ELEM_1987
1987
*ORIENTATION, NAME=ORI_1987, SYSTEM=RECTANGULAR
-32.27446478, -11.22383966, -203.90486946, -33.48529340, -11.76229728, -203.41094900
3, 0.
*SHELL SECTION, ELSET=ELEM_1987, COMPOSITE, ORIENTATION=ORI_1987
1.44187760, 3, CFRP, 0.
** SOURCE_TET=2003
*ELSET, ELSET=ELEM_1988
1988
*ORIENTATION, NAME=ORI_1988, SYSTEM=RECTANGULAR
-30.32436728, -15.03504290, -204.00169301, -31.45237936, -15.73474874, -203.51384006
3, 0.
*SHELL SECTION, ELSET=ELEM_1988, COMPOSITE, ORIENTATION=ORI_1988
1.44555151, 3, CFRP, 0.
** SOURCE_TET=2595
*ELSET, ELSET=ELEM_1989
1989
*ORIENTATION, NAME=ORI_1989, SYSTEM=RECTANGULAR
-26.69706751, -15.35766902, -205.06690954, -27.80802200, -16.10802954, -204.61664383
3, 0.
*SHELL SECTION, ELSET=ELEM_1989, COMPOSITE, ORIENTATION=ORI_1989
1.46568358, 3, CFRP, 0.
** SOURCE_TET=5464
*ELSET, ELSET=ELEM_1990
1990
*ORIENTATION, NAME=ORI_1990, SYSTEM=RECTANGULAR
-18.81352917, 73.88489293, -174.08506135, -19.34764127, 74.63774482, -173.01364253
3, 0.
*SHELL SECTION, ELSET=ELEM_1990, COMPOSITE, ORIENTATION=ORI_1990
1.29320610, 3, CFRP, 0.
** SOURCE_TET=6280
*ELSET, ELSET=ELEM_1991
1991
*ORIENTATION, NAME=ORI_1991, SYSTEM=RECTANGULAR
-25.67015757, 70.87634335, -175.22789809, -26.26100269, 71.60660457, -174.17072232
3, 0.
*SHELL SECTION, ELSET=ELEM_1991, COMPOSITE, ORIENTATION=ORI_1991
1.29429245, 3, CFRP, 0.
** SOURCE_TET=6656
*ELSET, ELSET=ELEM_1992
1992
*ORIENTATION, NAME=ORI_1992, SYSTEM=RECTANGULAR
-12.27214279, 70.54908047, -179.37062337, -12.71588937, 71.44364299, -178.36920095
3, 0.
*SHELL SECTION, ELSET=ELEM_1992, COMPOSITE, ORIENTATION=ORI_1992
1.30136919, 3, CFRP, 0.
** SOURCE_TET=4641
*ELSET, ELSET=ELEM_1993
1993
*ORIENTATION, NAME=ORI_1993, SYSTEM=RECTANGULAR
-36.53613958, -10.78769807, -202.34662582, -37.73591441, -11.29408224, -201.79515919
3, 0.
*SHELL SECTION, ELSET=ELEM_1993, COMPOSITE, ORIENTATION=ORI_1993
1.40911472, 3, CFRP, 0.
** SOURCE_TET=4743
*ELSET, ELSET=ELEM_1994
1994
*ORIENTATION, NAME=ORI_1994, SYSTEM=RECTANGULAR
-38.18953791, -6.75873686, -202.05037611, -39.43787652, -7.11849013, -201.49160220
3, 0.
*SHELL SECTION, ELSET=ELEM_1994, COMPOSITE, ORIENTATION=ORI_1994
1.40121198, 3, CFRP, 0.
** SOURCE_TET=2696
*ELSET, ELSET=ELEM_1995
1995
*ORIENTATION, NAME=ORI_1995, SYSTEM=RECTANGULAR
-34.66793389, -3.84711913, -203.62063708, -35.95803069, -4.13549226, -203.11815207
3, 0.
*SHELL SECTION, ELSET=ELEM_1995, COMPOSITE, ORIENTATION=ORI_1995
1.43132401, 3, CFRP, 0.
** SOURCE_TET=2734
*ELSET, ELSET=ELEM_1996
1996
*ORIENTATION, NAME=ORI_1996, SYSTEM=RECTANGULAR
20.45411160, 33.87206576, -201.68064774, 20.99639636, 35.04755646, -201.11130700
3, 0.
*SHELL SECTION, ELSET=ELEM_1996, COMPOSITE, ORIENTATION=ORI_1996
1.40671635, 3, CFRP, 0.
** SOURCE_TET=3364
*ELSET, ELSET=ELEM_1997
1997
*ORIENTATION, NAME=ORI_1997, SYSTEM=RECTANGULAR
15.73407604, 32.40344119, -203.14899072, 16.21330686, 33.62645015, -202.62498032
3, 0.
*SHELL SECTION, ELSET=ELEM_1997, COMPOSITE, ORIENTATION=ORI_1997
1.42399192, 3, CFRP, 0.
** SOURCE_TET=4610
*ELSET, ELSET=ELEM_1998
1998
*ORIENTATION, NAME=ORI_1998, SYSTEM=RECTANGULAR
11.99623786, 35.38508015, -202.61733845, 12.27677062, 36.66510576, -202.08551535
3, 0.
*SHELL SECTION, ELSET=ELEM_1998, COMPOSITE, ORIENTATION=ORI_1998
1.41480756, 3, CFRP, 0.
** SOURCE_TET=4898
*ELSET, ELSET=ELEM_1999
1999
*ORIENTATION, NAME=ORI_1999, SYSTEM=RECTANGULAR
30.48756677, 35.41016278, -198.24794956, 31.15527591, 36.46176685, -197.57840240
3, 0.
*SHELL SECTION, ELSET=ELEM_1999, COMPOSITE, ORIENTATION=ORI_1999
1.36445546, 3, CFRP, 0.
** SOURCE_TET=2976
*ELSET, ELSET=ELEM_2000
2000
*ORIENTATION, NAME=ORI_2000, SYSTEM=RECTANGULAR
24.11835168, 30.19720158, -202.09403692, 24.85081111, 31.27124303, -201.53731604
3, 0.
*SHELL SECTION, ELSET=ELEM_2000, COMPOSITE, ORIENTATION=ORI_2000
1.40702355, 3, CFRP, 0.
** SOURCE_TET=3625
*ELSET, ELSET=ELEM_2001
2001
*ORIENTATION, NAME=ORI_2001, SYSTEM=RECTANGULAR
28.85094675, 30.83506577, -200.51001057, 29.62008799, 31.85615601, -199.90519946
3, 0.
*SHELL SECTION, ELSET=ELEM_2001, COMPOSITE, ORIENTATION=ORI_2001
1.39174068, 3, CFRP, 0.
** SOURCE_TET=5987
*ELSET, ELSET=ELEM_2002
2002
*ORIENTATION, NAME=ORI_2002, SYSTEM=RECTANGULAR
35.28116294, 35.61976828, -196.35585166, 35.97891636, 36.62499031, -195.64686023
3, 0.
*SHELL SECTION, ELSET=ELEM_2002, COMPOSITE, ORIENTATION=ORI_2002
1.35491455, 3, CFRP, 0.
** SOURCE_TET=5140
*ELSET, ELSET=ELEM_2003
2003
*ORIENTATION, NAME=ORI_2003, SYSTEM=RECTANGULAR
32.84686770, 45.38684768, -192.62417689, 33.34617867, 46.45038662, -191.83704699
3, 0.
*SHELL SECTION, ELSET=ELEM_2003, COMPOSITE, ORIENTATION=ORI_2003
1.33357441, 3, CFRP, 0.
** SOURCE_TET=3544
*ELSET, ELSET=ELEM_2004
2004
*ORIENTATION, NAME=ORI_2004, SYSTEM=RECTANGULAR
36.54946203, 40.48857431, -193.63732810, 37.16859225, 41.49270483, -192.85732832
3, 0.
*SHELL SECTION, ELSET=ELEM_2004, COMPOSITE, ORIENTATION=ORI_2004
1.34377384, 3, CFRP, 0.
** SOURCE_TET=2273
*ELSET, ELSET=ELEM_2005
2005
*ORIENTATION, NAME=ORI_2005, SYSTEM=RECTANGULAR
22.42513601, 26.10626003, -203.78790093, 23.17926791, 27.19324494, -203.28815212
3, 0.
*SHELL SECTION, ELSET=ELEM_2005, COMPOSITE, ORIENTATION=ORI_2005
1.43935132, 3, CFRP, 0.
** SOURCE_TET=2876
*ELSET, ELSET=ELEM_2006
2006
*ORIENTATION, NAME=ORI_2006, SYSTEM=RECTANGULAR
15.21223057, 28.04937544, -204.68676780, 15.75766414, 29.26760838, -204.21942347
3, 0.
*SHELL SECTION, ELSET=ELEM_2006, COMPOSITE, ORIENTATION=ORI_2006
1.44716883, 3, CFRP, 0.
** SOURCE_TET=3386
*ELSET, ELSET=ELEM_2007
2007
*ORIENTATION, NAME=ORI_2007, SYSTEM=RECTANGULAR
18.22434579, 25.47792844, -204.89620169, 18.92139563, 26.62111893, -204.44096877
3, 0.
*SHELL SECTION, ELSET=ELEM_2007, COMPOSITE, ORIENTATION=ORI_2007
1.45879269, 3, CFRP, 0.
** SOURCE_TET=2581
*ELSET, ELSET=ELEM_2008
2008
*ORIENTATION, NAME=ORI_2008, SYSTEM=RECTANGULAR
24.20263032, 22.89877695, -204.20013968, 25.08699125, 23.88733130, -203.70956241
3, 0.
*SHELL SECTION, ELSET=ELEM_2008, COMPOSITE, ORIENTATION=ORI_2008
1.44547379, 3, CFRP, 0.
** SOURCE_TET=4163
*ELSET, ELSET=ELEM_2009
2009
*ORIENTATION, NAME=ORI_2009, SYSTEM=RECTANGULAR
31.44692603, 27.46613580, -200.76866896, 32.29661665, 28.42466828, -200.16930150
3, 0.
*SHELL SECTION, ELSET=ELEM_2009, COMPOSITE, ORIENTATION=ORI_2009
1.39360952, 3, CFRP, 0.
** SOURCE_TET=1819
*ELSET, ELSET=ELEM_2010
2010
*ORIENTATION, NAME=ORI_2010, SYSTEM=RECTANGULAR
27.36036786, 22.46857390, -203.43765316, 28.28867517, 23.40974454, -202.93521573
3, 0.
*SHELL SECTION, ELSET=ELEM_2010, COMPOSITE, ORIENTATION=ORI_2010
1.43330657, 3, CFRP, 0.
** SOURCE_TET=3836
*ELSET, ELSET=ELEM_2011
2011
*ORIENTATION, NAME=ORI_2011, SYSTEM=RECTANGULAR
30.26017092, 24.20208215, -202.12896827, 31.16287021, 25.13765864, -201.57234395
3, 0.
*SHELL SECTION, ELSET=ELEM_2011, COMPOSITE, ORIENTATION=ORI_2011
1.40639555, 3, CFRP, 0.
** SOURCE_TET=2504
*ELSET, ELSET=ELEM_2012
2012
*ORIENTATION, NAME=ORI_2012, SYSTEM=RECTANGULAR
15.06171454, 10.84604297, -208.24024826, 16.16613238, 11.68636989, -207.96801326
3, 0.
*SHELL SECTION, ELSET=ELEM_2012, COMPOSITE, ORIENTATION=ORI_2012
1.64779460, 3, CFRP, 0.
** SOURCE_TET=2196
*ELSET, ELSET=ELEM_2013
2013
*ORIENTATION, NAME=ORI_2013, SYSTEM=RECTANGULAR
15.83674338, 8.90475068, -208.31621426, 17.00930050, 9.64883831, -208.04892527
3, 0.
*SHELL SECTION, ELSET=ELEM_2013, COMPOSITE, ORIENTATION=ORI_2013
1.65540195, 3, CFRP, 0.
** SOURCE_TET=2116
*ELSET, ELSET=ELEM_2014
2014
*ORIENTATION, NAME=ORI_2014, SYSTEM=RECTANGULAR
14.60741663, 7.26610303, -208.64271894, 15.83619760, 7.92383294, -208.40295096
3, 0.
*SHELL SECTION, ELSET=ELEM_2014, COMPOSITE, ORIENTATION=ORI_2014
1.68366015, 3, CFRP, 0.
** SOURCE_TET=7257
*ELSET, ELSET=ELEM_2015
2015
*ORIENTATION, NAME=ORI_2015, SYSTEM=RECTANGULAR
16.46882437, 12.56466091, -207.80883200, 17.51514324, 13.46679541, -207.50655700
3, 0.
*SHELL SECTION, ELSET=ELEM_2015, COMPOSITE, ORIENTATION=ORI_2015
1.59286261, 3, CFRP, 0.
** SOURCE_TET=2828
*ELSET, ELSET=ELEM_2016
2016
*ORIENTATION, NAME=ORI_2016, SYSTEM=RECTANGULAR
15.61706964, 14.63261215, -207.66094111, 16.58930235, 15.61099447, -207.34864061
3, 0.
*SHELL SECTION, ELSET=ELEM_2016, COMPOSITE, ORIENTATION=ORI_2016
1.58310604, 3, CFRP, 0.
** SOURCE_TET=814
*ELSET, ELSET=ELEM_2017
2017
*ORIENTATION, NAME=ORI_2017, SYSTEM=RECTANGULAR
13.36439688, 14.95413687, -207.94624093, 14.27883710, 15.99227494, -207.65286671
3, 0.
*SHELL SECTION, ELSET=ELEM_2017, COMPOSITE, ORIENTATION=ORI_2017
1.60323119, 3, CFRP, 0.
** SOURCE_TET=3938
*ELSET, ELSET=ELEM_2018
2018
*ORIENTATION, NAME=ORI_2018, SYSTEM=RECTANGULAR
-35.48093713, 24.69167262, -199.99015179, -36.61107626, 25.26362189, -199.36113702
3, 0.
*SHELL SECTION, ELSET=ELEM_2018, COMPOSITE, ORIENTATION=ORI_2018
1.37787271, 3, CFRP, 0.
** SOURCE_TET=4964
*ELSET, ELSET=ELEM_2019
2019
*ORIENTATION, NAME=ORI_2019, SYSTEM=RECTANGULAR
-39.66211254, 14.24694364, -200.55134696, -40.90824474, 14.51711346, -199.93965847
3, 0.
*SHELL SECTION, ELSET=ELEM_2019, COMPOSITE, ORIENTATION=ORI_2019
1.38344574, 3, CFRP, 0.
** SOURCE_TET=4267
*ELSET, ELSET=ELEM_2020
2020
*ORIENTATION, NAME=ORI_2020, SYSTEM=RECTANGULAR
-35.51385961, 16.72367040, -201.87426340, -36.73424639, 17.15828888, -201.30702194
3, 0.
*SHELL SECTION, ELSET=ELEM_2020, COMPOSITE, ORIENTATION=ORI_2020
1.40108991, 3, CFRP, 0.
** SOURCE_TET=3697
*ELSET, ELSET=ELEM_2021
2021
*ORIENTATION, NAME=ORI_2021, SYSTEM=RECTANGULAR
-33.92425272, 20.57312376, -201.65715342, -35.10168090, 21.09846823, -201.07605440
3, 0.
*SHELL SECTION, ELSET=ELEM_2021, COMPOSITE, ORIENTATION=ORI_2021
1.39920366, 3, CFRP, 0.
** SOURCE_TET=6321
*ELSET, ELSET=ELEM_2022
2022
*ORIENTATION, NAME=ORI_2022, SYSTEM=RECTANGULAR
43.04405699, 59.52891272, -177.26372020, 43.33588501, 60.45862037, -176.23879089
3, 0.
*SHELL SECTION, ELSET=ELEM_2022, COMPOSITE, ORIENTATION=ORI_2022
1.29941654, 3, CFRP, 0.
** SOURCE_TET=6914
*ELSET, ELSET=ELEM_2023
2023
*ORIENTATION, NAME=ORI_2023, SYSTEM=RECTANGULAR
44.67635156, 65.16936986, -170.64854059, 44.85227897, 66.05107700, -169.55691699
3, 0.
*SHELL SECTION, ELSET=ELEM_2023, COMPOSITE, ORIENTATION=ORI_2023
1.28921366, 3, CFRP, 0.
** SOURCE_TET=6653
*ELSET, ELSET=ELEM_2024
2024
*ORIENTATION, NAME=ORI_2024, SYSTEM=RECTANGULAR
38.86877907, 71.14320970, -167.85267018, 38.94900999, 72.00613674, -166.73511932
3, 0.
*SHELL SECTION, ELSET=ELEM_2024, COMPOSITE, ORIENTATION=ORI_2024
1.28699362, 3, CFRP, 0.
** SOURCE_TET=2194
*ELSET, ELSET=ELEM_2025
2025
*ORIENTATION, NAME=ORI_2025, SYSTEM=RECTANGULAR
-8.95388338, 29.52867594, -205.04164610, -9.44738484, 30.77587877, -204.59338121
3, 0.
*SHELL SECTION, ELSET=ELEM_2025, COMPOSITE, ORIENTATION=ORI_2025
1.46576023, 3, CFRP, 0.
** SOURCE_TET=2532
*ELSET, ELSET=ELEM_2026
2026
*ORIENTATION, NAME=ORI_2026, SYSTEM=RECTANGULAR
-5.40817336, 30.81500994, -204.90438796, -5.72915911, 32.11416028, -204.44702975
3, 0.
*SHELL SECTION, ELSET=ELEM_2026, COMPOSITE, ORIENTATION=ORI_2026
1.45366693, 3, CFRP, 0.
** SOURCE_TET=1565
*ELSET, ELSET=ELEM_2027
2027
*ORIENTATION, NAME=ORI_2027, SYSTEM=RECTANGULAR
-3.19898482, 28.69161678, -205.70781294, -3.45768649, 30.01426549, -205.27924108
3, 0.
*SHELL SECTION, ELSET=ELEM_2027, COMPOSITE, ORIENTATION=ORI_2027
1.48483586, 3, CFRP, 0.
** SOURCE_TET=3314
*ELSET, ELSET=ELEM_2028
2028
*ORIENTATION, NAME=ORI_2028, SYSTEM=RECTANGULAR
-28.09685582, 5.92071151, -205.74342342, -29.43435388, 6.12235705, -205.33058202
3, 0.
*SHELL SECTION, ELSET=ELEM_2028, COMPOSITE, ORIENTATION=ORI_2028
1.48137975, 3, CFRP, 0.
** SOURCE_TET=7283
*ELSET, ELSET=ELEM_2029
2029
*ORIENTATION, NAME=ORI_2029, SYSTEM=RECTANGULAR
-26.40879781, 7.90498218, -206.07301136, -27.72388546, 8.23416046, -205.67028796
3, 0.
*SHELL SECTION, ELSET=ELEM_2029, COMPOSITE, ORIENTATION=ORI_2029
1.50282896, 3, CFRP, 0.
** SOURCE_TET=825
*ELSET, ELSET=ELEM_2030
2030
*ORIENTATION, NAME=ORI_2030, SYSTEM=RECTANGULAR
-23.80000987, 6.78886506, -206.85743757, -25.11753565, 7.15114707, -206.49291383
3, 0.
*SHELL SECTION, ELSET=ELEM_2030, COMPOSITE, ORIENTATION=ORI_2030
1.53491116, 3, CFRP, 0.
** SOURCE_TET=5215
*ELSET, ELSET=ELEM_2031
2031
*ORIENTATION, NAME=ORI_2031, SYSTEM=RECTANGULAR
-31.22502199, 6.46219095, -204.72536655, -32.54890706, 6.64371401, -204.26235716
3, 0.
*SHELL SECTION, ELSET=ELEM_2031, COMPOSITE, ORIENTATION=ORI_2031
1.45834470, 3, CFRP, 0.
** SOURCE_TET=3376
*ELSET, ELSET=ELEM_2032
2032
*ORIENTATION, NAME=ORI_2032, SYSTEM=RECTANGULAR
-31.72161194, 2.83806923, -204.71873481, -33.05109341, 2.81845118, -204.23697328
3, 0.
*SHELL SECTION, ELSET=ELEM_2032, COMPOSITE, ORIENTATION=ORI_2032
1.45016479, 3, CFRP, 0.
** SOURCE_TET=6693
*ELSET, ELSET=ELEM_2033
2033
*ORIENTATION, NAME=ORI_2033, SYSTEM=RECTANGULAR
1.36191737, 87.79853564, -156.71887241, 0.97596308, 88.42343353, -155.51034359
3, 0.
*SHELL SECTION, ELSET=ELEM_2033, COMPOSITE, ORIENTATION=ORI_2033
1.27734280, 3, CFRP, 0.
** SOURCE_TET=5610
*ELSET, ELSET=ELEM_2034
2034
*ORIENTATION, NAME=ORI_2034, SYSTEM=RECTANGULAR
-6.66567243, 86.09072780, -159.60815435, -7.09158205, 86.72537391, -158.41826977
3, 0.
*SHELL SECTION, ELSET=ELEM_2034, COMPOSITE, ORIENTATION=ORI_2034
1.28121269, 3, CFRP, 0.
** SOURCE_TET=6531
*ELSET, ELSET=ELEM_2035
2035
*ORIENTATION, NAME=ORI_2035, SYSTEM=RECTANGULAR
-7.49090522, 81.10560310, -167.37103529, -7.90900148, 81.85731943, -166.24848548
3, 0.
*SHELL SECTION, ELSET=ELEM_2035, COMPOSITE, ORIENTATION=ORI_2035
1.28623092, 3, CFRP, 0.
** SOURCE_TET=5769
*ELSET, ELSET=ELEM_2036
2036
*ORIENTATION, NAME=ORI_2036, SYSTEM=RECTANGULAR
37.30153936, -24.94094773, -199.18779171, 38.42926007, -25.50437426, -198.54685760
3, 0.
*SHELL SECTION, ELSET=ELEM_2036, COMPOSITE, ORIENTATION=ORI_2036
1.37355900, 3, CFRP, 0.
** SOURCE_TET=3072
*ELSET, ELSET=ELEM_2037
2037
*ORIENTATION, NAME=ORI_2037, SYSTEM=RECTANGULAR
36.69297647, -19.93028907, -200.75180584, 37.87693199, -20.41387342, -200.14815403
3, 0.
*SHELL SECTION, ELSET=ELEM_2037, COMPOSITE, ORIENTATION=ORI_2037
1.39574564, 3, CFRP, 0.
** SOURCE_TET=3686
*ELSET, ELSET=ELEM_2038
2038
*ORIENTATION, NAME=ORI_2038, SYSTEM=RECTANGULAR
-38.52833660, -14.53737888, -201.00747023, -39.67638176, -15.11434611, -200.41662243
3, 0.
*SHELL SECTION, ELSET=ELEM_2038, COMPOSITE, ORIENTATION=ORI_2038
1.39589298, 3, CFRP, 0.
** SOURCE_TET=3780
*ELSET, ELSET=ELEM_2039
2039
*ORIENTATION, NAME=ORI_2039, SYSTEM=RECTANGULAR
-31.86967707, -19.12740830, -202.72039038, -32.92281054, -19.89936126, -202.17725273
3, 0.
*SHELL SECTION, ELSET=ELEM_2039, COMPOSITE, ORIENTATION=ORI_2039
1.41458523, 3, CFRP, 0.
** SOURCE_TET=3599
*ELSET, ELSET=ELEM_2040
2040
*ORIENTATION, NAME=ORI_2040, SYSTEM=RECTANGULAR
-35.79510543, -19.02606059, -201.27614035, -36.86000758, -19.75944108, -200.70330839
3, 0.
*SHELL SECTION, ELSET=ELEM_2040, COMPOSITE, ORIENTATION=ORI_2040
1.39940572, 3, CFRP, 0.
** SOURCE_TET=3000
*ELSET, ELSET=ELEM_2041
2041
*ORIENTATION, NAME=ORI_2041, SYSTEM=RECTANGULAR
-15.88075821, 26.49805890, -205.05947352, -16.65903851, 27.58688592, -204.60259772
3, 0.
*SHELL SECTION, ELSET=ELEM_2041, COMPOSITE, ORIENTATION=ORI_2041
1.46085310, 3, CFRP, 0.
** SOURCE_TET=1804
*ELSET, ELSET=ELEM_2042
2042
*ORIENTATION, NAME=ORI_2042, SYSTEM=RECTANGULAR
-18.24737727, 24.15351511, -205.24713955, -19.10995439, 25.17954424, -204.79633479
3, 0.
*SHELL SECTION, ELSET=ELEM_2042, COMPOSITE, ORIENTATION=ORI_2042
1.46545577, 3, CFRP, 0.
** SOURCE_TET=3199
*ELSET, ELSET=ELEM_2043
2043
*ORIENTATION, NAME=ORI_2043, SYSTEM=RECTANGULAR
-15.38499208, 29.48194216, -204.22720697, -16.11669940, 30.59388157, -203.74950919
3, 0.
*SHELL SECTION, ELSET=ELEM_2043, COMPOSITE, ORIENTATION=ORI_2043
1.44557917, 3, CFRP, 0.
** SOURCE_TET=1942
*ELSET, ELSET=ELEM_2044
2044
*ORIENTATION, NAME=ORI_2044, SYSTEM=RECTANGULAR
-11.79630192, 31.37997954, -204.14130254, -12.35753227, 32.58735394, -203.66457668
3, 0.
*SHELL SECTION, ELSET=ELEM_2044, COMPOSITE, ORIENTATION=ORI_2044
1.44811952, 3, CFRP, 0.
** SOURCE_TET=1924
*ELSET, ELSET=ELEM_2045
2045
*ORIENTATION, NAME=ORI_2045, SYSTEM=RECTANGULAR
-21.19976456, 23.75180890, -204.71375090, -22.18377199, 24.65700994, -204.25294676
3, 0.
*SHELL SECTION, ELSET=ELEM_2045, COMPOSITE, ORIENTATION=ORI_2045
1.45904994, 3, CFRP, 0.
** SOURCE_TET=3955
*ELSET, ELSET=ELEM_2046
2046
*ORIENTATION, NAME=ORI_2046, SYSTEM=RECTANGULAR
-23.70498834, 27.04223453, -203.19802472, -24.67172600, 27.93445974, -202.67903296
3, 0.
*SHELL SECTION, ELSET=ELEM_2046, COMPOSITE, ORIENTATION=ORI_2046
1.42134404, 3, CFRP, 0.
** SOURCE_TET=2636
*ELSET, ELSET=ELEM_2047
2047
*ORIENTATION, NAME=ORI_2047, SYSTEM=RECTANGULAR
-22.29232264, 31.44436677, -202.14733576, -23.13692434, 32.43480461, -201.59445165
3, 0.
*SHELL SECTION, ELSET=ELEM_2047, COMPOSITE, ORIENTATION=ORI_2047
1.40220714, 3, CFRP, 0.
** SOURCE_TET=1930
*ELSET, ELSET=ELEM_2048
2048
*ORIENTATION, NAME=ORI_2048, SYSTEM=RECTANGULAR
-18.15175909, 32.28248575, -202.78550853, -18.90917849, 33.35003234, -202.25010204
3, 0.
*SHELL SECTION, ELSET=ELEM_2048, COMPOSITE, ORIENTATION=ORI_2048
1.42417526, 3, CFRP, 0.
** SOURCE_TET=2642
*ELSET, ELSET=ELEM_2049
2049
*ORIENTATION, NAME=ORI_2049, SYSTEM=RECTANGULAR
-22.82021637, 19.61611129, -205.28259137, -23.89342504, 20.42781546, -204.84743683
3, 0.
*SHELL SECTION, ELSET=ELEM_2049, COMPOSITE, ORIENTATION=ORI_2049
1.47135305, 3, CFRP, 0.
** SOURCE_TET=1412
*ELSET, ELSET=ELEM_2050
2050
*ORIENTATION, NAME=ORI_2050, SYSTEM=RECTANGULAR
-20.81377091, 16.76404413, -206.30126301, -21.93385511, 17.53331590, -205.90930339
3, 0.
*SHELL SECTION, ELSET=ELEM_2050, COMPOSITE, ORIENTATION=ORI_2050
1.51265311, 3, CFRP, 0.
** SOURCE_TET=492
*ELSET, ELSET=ELEM_2051
2051
*ORIENTATION, NAME=ORI_2051, SYSTEM=RECTANGULAR
-18.34178396, 17.40028917, -206.71223629, -19.35734480, 18.30725645, -206.33007596
3, 0.
*SHELL SECTION, ELSET=ELEM_2051, COMPOSITE, ORIENTATION=ORI_2051
1.53430784, 3, CFRP, 0.
** SOURCE_TET=4750
*ELSET, ELSET=ELEM_2052
2052
*ORIENTATION, NAME=ORI_2052, SYSTEM=RECTANGULAR
-33.31989589, 9.57264271, -203.71567288, -34.61587983, 9.83900596, -203.21619689
3, 0.
*SHELL SECTION, ELSET=ELEM_2052, COMPOSITE, ORIENTATION=ORI_2052
1.42938495, 3, CFRP, 0.
** SOURCE_TET=2502
*ELSET, ELSET=ELEM_2053
2053
*ORIENTATION, NAME=ORI_2053, SYSTEM=RECTANGULAR
-28.22976861, 14.20823791, -204.75563324, -29.46686518, 14.71832930, -204.29803206
3, 0.
*SHELL SECTION, ELSET=ELEM_2053, COMPOSITE, ORIENTATION=ORI_2053
1.46043158, 3, CFRP, 0.
** SOURCE_TET=2230
*ELSET, ELSET=ELEM_2054
2054
*ORIENTATION, NAME=ORI_2054, SYSTEM=RECTANGULAR
-26.03341560, 11.55288171, -205.80490318, -27.29100725, 12.03180015, -205.37004645
3, 0.
*SHELL SECTION, ELSET=ELEM_2054, COMPOSITE, ORIENTATION=ORI_2054
1.48372114, 3, CFRP, 0.
** SOURCE_TET=2912
*ELSET, ELSET=ELEM_2055
2055
*ORIENTATION, NAME=ORI_2055, SYSTEM=RECTANGULAR
-32.11298019, 13.42486232, -203.63555903, -33.38403338, 13.80410098, -203.14504725
3, 0.
*SHELL SECTION, ELSET=ELEM_2055, COMPOSITE, ORIENTATION=ORI_2055
1.42847610, 3, CFRP, 0.
** SOURCE_TET=2670
*ELSET, ELSET=ELEM_2056
2056
*ORIENTATION, NAME=ORI_2056, SYSTEM=RECTANGULAR
-26.72257687, 18.69913844, -204.43159893, -27.87905993, 19.36163644, -203.95868948
3, 0.
*SHELL SECTION, ELSET=ELEM_2056, COMPOSITE, ORIENTATION=ORI_2056
1.44338179, 3, CFRP, 0.
** SOURCE_TET=3850
*ELSET, ELSET=ELEM_2057
2057
*ORIENTATION, NAME=ORI_2057, SYSTEM=RECTANGULAR
-29.04572162, 21.74858326, -203.08499161, -30.17940317, 22.41941658, -202.57045414
3, 0.
*SHELL SECTION, ELSET=ELEM_2057, COMPOSITE, ORIENTATION=ORI_2057
1.42304075, 3, CFRP, 0.
** SOURCE_TET=5388
*ELSET, ELSET=ELEM_2058
2058
*ORIENTATION, NAME=ORI_2058, SYSTEM=RECTANGULAR
-27.65362749, 25.95999960, -202.43152416, -28.68148505, 26.76673831, -201.89052371
3, 0.
*SHELL SECTION, ELSET=ELEM_2058, COMPOSITE, ORIENTATION=ORI_2058
1.41193151, 3, CFRP, 0.
** SOURCE_TET=2891
*ELSET, ELSET=ELEM_2059
2059
*ORIENTATION, NAME=ORI_2059, SYSTEM=RECTANGULAR
18.73002216, 12.27945063, -207.43749922, 19.85471255, 13.07226531, -207.11113070
3, 0.
*SHELL SECTION, ELSET=ELEM_2059, COMPOSITE, ORIENTATION=ORI_2059
1.56775975, 3, CFRP, 0.
** SOURCE_TET=2398
*ELSET, ELSET=ELEM_2060
2060
*ORIENTATION, NAME=ORI_2060, SYSTEM=RECTANGULAR
19.77166134, 10.14897064, -207.47318004, 20.95712326, 10.85011396, -207.15212224
3, 0.
*SHELL SECTION, ELSET=ELEM_2060, COMPOSITE, ORIENTATION=ORI_2060
1.56985426, 3, CFRP, 0.
** SOURCE_TET=1599
*ELSET, ELSET=ELEM_2061
2061
*ORIENTATION, NAME=ORI_2061, SYSTEM=RECTANGULAR
18.30305594, 8.57532676, -207.91265928, 19.54198809, 9.18842480, -207.61406602
3, 0.
*SHELL SECTION, ELSET=ELEM_2061, COMPOSITE, ORIENTATION=ORI_2061
1.62178516, 3, CFRP, 0.
** SOURCE_TET=2377
*ELSET, ELSET=ELEM_2062
2062
*ORIENTATION, NAME=ORI_2062, SYSTEM=RECTANGULAR
17.30015863, 16.54680660, -207.06223497, 18.24960064, 17.53405705, -206.71024573
3, 0.
*SHELL SECTION, ELSET=ELEM_2062, COMPOSITE, ORIENTATION=ORI_2062
1.55077577, 3, CFRP, 0.
** SOURCE_TET=2172
*ELSET, ELSET=ELEM_2063
2063
*ORIENTATION, NAME=ORI_2063, SYSTEM=RECTANGULAR
20.12452352, 14.01588778, -206.92380890, 21.21992597, 14.83629989, -206.56741386
3, 0.
*SHELL SECTION, ELSET=ELEM_2063, COMPOSITE, ORIENTATION=ORI_2063
1.54239404, 3, CFRP, 0.
** SOURCE_TET=1810
*ELSET, ELSET=ELEM_2064
2064
*ORIENTATION, NAME=ORI_2064, SYSTEM=RECTANGULAR
19.54761271, 16.21614405, -206.69194852, 20.54272393, 17.15236507, -206.32692269
3, 0.
*SHELL SECTION, ELSET=ELEM_2064, COMPOSITE, ORIENTATION=ORI_2064
1.53431106, 3, CFRP, 0.
** SOURCE_TET=1514
*ELSET, ELSET=ELEM_2065
2065
*ORIENTATION, NAME=ORI_2065, SYSTEM=RECTANGULAR
16.53098961, 18.60374311, -206.82687641, 17.41230761, 19.64963808, -206.46717891
3, 0.
*SHELL SECTION, ELSET=ELEM_2065, COMPOSITE, ORIENTATION=ORI_2065
1.54044139, 3, CFRP, 0.
** SOURCE_TET=405
*ELSET, ELSET=ELEM_2066
2066
*ORIENTATION, NAME=ORI_2066, SYSTEM=RECTANGULAR
12.59531185, 16.80101689, -207.75238560, 13.34019410, 17.96390184, -207.44767421
3, 0.
*SHELL SECTION, ELSET=ELEM_2066, COMPOSITE, ORIENTATION=ORI_2066
1.60258508, 3, CFRP, 0.
** SOURCE_TET=1509
*ELSET, ELSET=ELEM_2067
2067
*ORIENTATION, NAME=ORI_2067, SYSTEM=RECTANGULAR
14.07748590, 18.54172668, -207.23172293, 14.81705826, 19.69800524, -206.89105796
3, 0.
*SHELL SECTION, ELSET=ELEM_2067, COMPOSITE, ORIENTATION=ORI_2067
1.55393517, 3, CFRP, 0.
** SOURCE_TET=1586
*ELSET, ELSET=ELEM_2068
2068
*ORIENTATION, NAME=ORI_2068, SYSTEM=RECTANGULAR
22.57249761, 13.90958078, -206.39590853, 23.71148274, 14.65441397, -206.01128351
3, 0.
*SHELL SECTION, ELSET=ELEM_2068, COMPOSITE, ORIENTATION=ORI_2068
1.51164746, 3, CFRP, 0.
** SOURCE_TET=2706
*ELSET, ELSET=ELEM_2069
2069
*ORIENTATION, NAME=ORI_2069, SYSTEM=RECTANGULAR
23.64588347, 11.83335576, -206.40776241, 24.83227920, 12.50059181, -206.02401609
3, 0.
*SHELL SECTION, ELSET=ELEM_2069, COMPOSITE, ORIENTATION=ORI_2069
1.51173973, 3, CFRP, 0.
** SOURCE_TET=2577
*ELSET, ELSET=ELEM_2070
2070
*ORIENTATION, NAME=ORI_2070, SYSTEM=RECTANGULAR
22.24655672, 9.83386994, -206.97119532, 23.46706310, 10.45361659, -206.61583877
3, 0.
*SHELL SECTION, ELSET=ELEM_2070, COMPOSITE, ORIENTATION=ORI_2070
1.53279185, 3, CFRP, 0.
** SOURCE_TET=5868
*ELSET, ELSET=ELEM_2071
2071
*ORIENTATION, NAME=ORI_2071, SYSTEM=RECTANGULAR
55.97297523, -44.56500413, -179.41702545, 56.91440270, -44.92661053, -178.42558451
3, 0.
*SHELL SECTION, ELSET=ELEM_2071, COMPOSITE, ORIENTATION=ORI_2071
1.30317271, 3, CFRP, 0.
** SOURCE_TET=3964
*ELSET, ELSET=ELEM_2072
2072
*ORIENTATION, NAME=ORI_2072, SYSTEM=RECTANGULAR
53.41715623, -33.78266241, -187.05936997, 54.46690062, -34.12064989, -186.17404450
3, 0.
*SHELL SECTION, ELSET=ELEM_2072, COMPOSITE, ORIENTATION=ORI_2072
1.32013965, 3, CFRP, 0.
** SOURCE_TET=6890
*ELSET, ELSET=ELEM_2073
2073
*ORIENTATION, NAME=ORI_2073, SYSTEM=RECTANGULAR
57.87235840, -37.57066439, -182.01830989, 58.85916372, -37.88782169, -181.05621503
3, 0.
*SHELL SECTION, ELSET=ELEM_2073, COMPOSITE, ORIENTATION=ORI_2073
1.30679083, 3, CFRP, 0.
** SOURCE_TET=6712
*ELSET, ELSET=ELEM_2074
2074
*ORIENTATION, NAME=ORI_2074, SYSTEM=RECTANGULAR
51.55505102, -58.88529731, -171.62374880, 52.34912598, -59.30871895, -170.53280468
3, 0.
*SHELL SECTION, ELSET=ELEM_2074, COMPOSITE, ORIENTATION=ORI_2074
1.29099119, 3, CFRP, 0.
** SOURCE_TET=5039
*ELSET, ELSET=ELEM_2075
2075
*ORIENTATION, NAME=ORI_2075, SYSTEM=RECTANGULAR
59.60771990, -54.53361459, -168.09916318, 60.41584766, -54.80995046, -166.97196842
3, 0.
*SHELL SECTION, ELSET=ELEM_2075, COMPOSITE, ORIENTATION=ORI_2075
1.28860414, 3, CFRP, 0.
** SOURCE_TET=5624
*ELSET, ELSET=ELEM_2076
2076
*ORIENTATION, NAME=ORI_2076, SYSTEM=RECTANGULAR
61.50034389, -47.35183146, -172.40904588, 62.35651909, -47.61958145, -171.31576002
3, 0.
*SHELL SECTION, ELSET=ELEM_2076, COMPOSITE, ORIENTATION=ORI_2076
1.29229116, 3, CFRP, 0.
** SOURCE_TET=6126
*ELSET, ELSET=ELEM_2077
2077
*ORIENTATION, NAME=ORI_2077, SYSTEM=RECTANGULAR
20.08553964, 89.49828795, -148.19932451, 19.78678925, 90.08174272, -146.94619693
3, 0.
*SHELL SECTION, ELSET=ELEM_2077, COMPOSITE, ORIENTATION=ORI_2077
1.27426314, 3, CFRP, 0.
** SOURCE_TET=5354
*ELSET, ELSET=ELEM_2078
2078
*ORIENTATION, NAME=ORI_2078, SYSTEM=RECTANGULAR
1.96510839, 92.42169331, -146.19308127, 1.55088737, 92.90456016, -144.93004503
3, 0.
*SHELL SECTION, ELSET=ELEM_2078, COMPOSITE, ORIENTATION=ORI_2078
1.27319539, 3, CFRP, 0.
** SOURCE_TET=6871
*ELSET, ELSET=ELEM_2079
2079
*ORIENTATION, NAME=ORI_2079, SYSTEM=RECTANGULAR
11.35725286, 93.41730914, -141.64883351, 10.96781866, 93.89450147, -140.37579443
3, 0.
*SHELL SECTION, ELSET=ELEM_2079, COMPOSITE, ORIENTATION=ORI_2079
1.27180648, 3, CFRP, 0.
** SOURCE_TET=4621
*ELSET, ELSET=ELEM_2080
2080
*ORIENTATION, NAME=ORI_2080, SYSTEM=RECTANGULAR
-38.02246954, 9.93465486, -201.80891019, -39.30732613, 10.08552611, -201.23761219
3, 0.
*SHELL SECTION, ELSET=ELEM_2080, COMPOSITE, ORIENTATION=ORI_2080
1.40143943, 3, CFRP, 0.
** SOURCE_TET=5359
*ELSET, ELSET=ELEM_2081
2081
*ORIENTATION, NAME=ORI_2081, SYSTEM=RECTANGULAR
-40.97100943, 6.36421289, -200.80248785, -42.25984311, 6.40807675, -200.22198487
3, 0.
*SHELL SECTION, ELSET=ELEM_2081, COMPOSITE, ORIENTATION=ORI_2081
1.39235640, 3, CFRP, 0.
** SOURCE_TET=3856
*ELSET, ELSET=ELEM_2082
2082
*ORIENTATION, NAME=ORI_2082, SYSTEM=RECTANGULAR
-34.95138333, 0.74781286, -203.54611670, -36.26739891, 0.64972185, -203.03770628
3, 0.
*SHELL SECTION, ELSET=ELEM_2082, COMPOSITE, ORIENTATION=ORI_2082
1.43162608, 3, CFRP, 0.
** SOURCE_TET=4492
*ELSET, ELSET=ELEM_2083
2083
*ORIENTATION, NAME=ORI_2083, SYSTEM=RECTANGULAR
-39.52874136, 2.11183948, -201.66535953, -40.82443761, 2.06435481, -201.10063267
3, 0.
*SHELL SECTION, ELSET=ELEM_2083, COMPOSITE, ORIENTATION=ORI_2083
1.40022039, 3, CFRP, 0.
** SOURCE_TET=4930
*ELSET, ELSET=ELEM_2084
2084
*ORIENTATION, NAME=ORI_2084, SYSTEM=RECTANGULAR
42.37244974, -27.39442400, -196.09359212, 43.49890831, -27.85297077, -195.37190938
3, 0.
*SHELL SECTION, ELSET=ELEM_2084, COMPOSITE, ORIENTATION=ORI_2084
1.35292494, 3, CFRP, 0.
** SOURCE_TET=6136
*ELSET, ELSET=ELEM_2085
2085
*ORIENTATION, NAME=ORI_2085, SYSTEM=RECTANGULAR
46.32466468, -23.37660251, -195.25534548, 47.47814532, -23.73376463, -194.51919494
3, 0.
*SHELL SECTION, ELSET=ELEM_2085, COMPOSITE, ORIENTATION=ORI_2085
1.34915853, 3, CFRP, 0.
** SOURCE_TET=4758
*ELSET, ELSET=ELEM_2086
2086
*ORIENTATION, NAME=ORI_2086, SYSTEM=RECTANGULAR
55.76527085, -27.12235451, -188.03776109, 56.85289974, -27.37983891, -187.17129403
3, 0.
*SHELL SECTION, ELSET=ELEM_2086, COMPOSITE, ORIENTATION=ORI_2086
1.32218516, 3, CFRP, 0.
** SOURCE_TET=5309
*ELSET, ELSET=ELEM_2087
2087
*ORIENTATION, NAME=ORI_2087, SYSTEM=RECTANGULAR
52.14948979, -23.07812907, -191.85825977, 53.26993875, -23.33755374, -191.03528165
3, 0.
*SHELL SECTION, ELSET=ELEM_2087, COMPOSITE, ORIENTATION=ORI_2087
1.33177459, 3, CFRP, 0.
** SOURCE_TET=3393
*ELSET, ELSET=ELEM_2088
2088
*ORIENTATION, NAME=ORI_2088, SYSTEM=RECTANGULAR
-4.75289560, 34.45928710, -203.66468358, -5.04898739, 35.74961811, -203.16731495
3, 0.
*SHELL SECTION, ELSET=ELEM_2088, COMPOSITE, ORIENTATION=ORI_2088
1.43261683, 3, CFRP, 0.
** SOURCE_TET=2680
*ELSET, ELSET=ELEM_2089
2089
*ORIENTATION, NAME=ORI_2089, SYSTEM=RECTANGULAR
-8.11535209, 37.35378310, -202.30830538, -8.55363320, 38.57949223, -201.75554251
3, 0.
*SHELL SECTION, ELSET=ELEM_2089, COMPOSITE, ORIENTATION=ORI_2089
1.40957069, 3, CFRP, 0.
** SOURCE_TET=3774
*ELSET, ELSET=ELEM_2090
2090
*ORIENTATION, NAME=ORI_2090, SYSTEM=RECTANGULAR
-11.61248552, 35.56193445, -202.65034929, -12.14299523, 36.75472888, -202.10647348
3, 0.
*SHELL SECTION, ELSET=ELEM_2090, COMPOSITE, ORIENTATION=ORI_2090
1.41325533, 3, CFRP, 0.
** SOURCE_TET=2586
*ELSET, ELSET=ELEM_2091
2091
*ORIENTATION, NAME=ORI_2091, SYSTEM=RECTANGULAR
-1.09755612, 35.36009890, -203.44353801, -1.28975696, 36.66612740, -202.93624284
3, 0.
*SHELL SECTION, ELSET=ELEM_2091, COMPOSITE, ORIENTATION=ORI_2091
1.42947090, 3, CFRP, 0.
** SOURCE_TET=1544
*ELSET, ELSET=ELEM_2092
2092
*ORIENTATION, NAME=ORI_2092, SYSTEM=RECTANGULAR
-0.55549406, 28.58508646, -205.80084101, -0.67174731, 29.92993897, -205.37911016
3, 0.
*SHELL SECTION, ELSET=ELEM_2092, COMPOSITE, ORIENTATION=ORI_2092
1.48448563, 3, CFRP, 0.
** SOURCE_TET=2122
*ELSET, ELSET=ELEM_2093
2093
*ORIENTATION, NAME=ORI_2093, SYSTEM=RECTANGULAR
1.60111224, 29.78683334, -205.39607370, 1.55533866, 31.13156083, -204.96062826
3, 0.
*SHELL SECTION, ELSET=ELEM_2093, COMPOSITE, ORIENTATION=ORI_2093
1.47483110, 3, CFRP, 0.
** SOURCE_TET=2318
*ELSET, ELSET=ELEM_2094
2094
*ORIENTATION, NAME=ORI_2094, SYSTEM=RECTANGULAR
1.73527762, 32.89965860, -204.34965842, 1.69794501, 34.23113538, -203.87449964
3, 0.
*SHELL SECTION, ELSET=ELEM_2094, COMPOSITE, ORIENTATION=ORI_2094
1.44180250, 3, CFRP, 0.
** SOURCE_TET=7217
*ELSET, ELSET=ELEM_2095
2095
*ORIENTATION, NAME=ORI_2095, SYSTEM=RECTANGULAR
7.43484513, -23.70812405, -206.82688760, 7.90050920, -24.99189295, -206.45933573
3, 0.
*SHELL SECTION, ELSET=ELEM_2095, COMPOSITE, ORIENTATION=ORI_2095
1.52074683, 3, CFRP, 0.
** SOURCE_TET=1046
*ELSET, ELSET=ELEM_2096
2096
*ORIENTATION, NAME=ORI_2096, SYSTEM=RECTANGULAR
6.85534444, -20.70297412, -207.56523246, 7.31700692, -22.00136024, -207.24733116
3, 0.
*SHELL SECTION, ELSET=ELEM_2096, COMPOSITE, ORIENTATION=ORI_2096
1.59641492, 3, CFRP, 0.
** SOURCE_TET=3055
*ELSET, ELSET=ELEM_2097
2097
*ORIENTATION, NAME=ORI_2097, SYSTEM=RECTANGULAR
4.77640522, -19.68076034, -207.90663186, 5.14878630, -21.01253916, -207.61049423
3, 0.
*SHELL SECTION, ELSET=ELEM_2097, COMPOSITE, ORIENTATION=ORI_2097
1.62037301, 3, CFRP, 0.
** SOURCE_TET=725
*ELSET, ELSET=ELEM_2098
2098
*ORIENTATION, NAME=ORI_2098, SYSTEM=RECTANGULAR
9.58446786, -24.85883389, -206.35497057, 10.11727272, -26.11259039, -205.97521588
3, 0.
*SHELL SECTION, ELSET=ELEM_2098, COMPOSITE, ORIENTATION=ORI_2098
1.50406206, 3, CFRP, 0.
** SOURCE_TET=1005
*ELSET, ELSET=ELEM_2099
2099
*ORIENTATION, NAME=ORI_2099, SYSTEM=RECTANGULAR
11.17979655, -27.08864064, -205.58701341, 11.74072117, -28.31133853, -205.15069533
3, 0.
*SHELL SECTION, ELSET=ELEM_2099, COMPOSITE, ORIENTATION=ORI_2099
1.48177695, 3, CFRP, 0.
** SOURCE_TET=1434
*ELSET, ELSET=ELEM_2100
2100
*ORIENTATION, NAME=ORI_2100, SYSTEM=RECTANGULAR
9.81142886, -29.54837162, -204.96559634, 10.30977215, -30.78859306, -204.50353062
3, 0.
*SHELL SECTION, ELSET=ELEM_2100, COMPOSITE, ORIENTATION=ORI_2100
1.46753216, 3, CFRP, 0.
** SOURCE_TET=758
*ELSET, ELSET=ELEM_2101
2101
*ORIENTATION, NAME=ORI_2101, SYSTEM=RECTANGULAR
11.24693411, -23.27100632, -206.57518272, 11.92386770, -24.45640858, -206.20561216
3, 0.
*SHELL SECTION, ELSET=ELEM_2101, COMPOSITE, ORIENTATION=ORI_2101
1.51423788, 3, CFRP, 0.
** SOURCE_TET=709
*ELSET, ELSET=ELEM_2102
2102
*ORIENTATION, NAME=ORI_2102, SYSTEM=RECTANGULAR
10.90083879, -20.75276189, -207.17154358, 11.61178383, -21.92675310, -206.83051308
3, 0.
*SHELL SECTION, ELSET=ELEM_2102, COMPOSITE, ORIENTATION=ORI_2102
1.55725324, 3, CFRP, 0.
** SOURCE_TET=958
*ELSET, ELSET=ELEM_2103
2103
*ORIENTATION, NAME=ORI_2103, SYSTEM=RECTANGULAR
8.61594407, -19.32018143, -207.71040811, 9.24180796, -20.54976327, -207.39988776
3, 0.
*SHELL SECTION, ELSET=ELEM_2103, COMPOSITE, ORIENTATION=ORI_2103
1.60812664, 3, CFRP, 0.
** SOURCE_TET=5491
*ELSET, ELSET=ELEM_2104
2104
*ORIENTATION, NAME=ORI_2104, SYSTEM=RECTANGULAR
-34.55763263, -27.61022765, -199.52843137, -35.43408138, -28.51370060, -198.88378091
3, 0.
*SHELL SECTION, ELSET=ELEM_2104, COMPOSITE, ORIENTATION=ORI_2104
1.37542629, 3, CFRP, 0.
** SOURCE_TET=4839
*ELSET, ELSET=ELEM_2105
2105
*ORIENTATION, NAME=ORI_2105, SYSTEM=RECTANGULAR
-26.05431972, -29.61724253, -201.77215096, -26.76460161, -30.69353755, -201.19155759
3, 0.
*SHELL SECTION, ELSET=ELEM_2105, COMPOSITE, ORIENTATION=ORI_2105
1.39758015, 3, CFRP, 0.
** SOURCE_TET=5658
*ELSET, ELSET=ELEM_2106
2106
*ORIENTATION, NAME=ORI_2106, SYSTEM=RECTANGULAR
-25.18577283, -32.82871791, -200.90927790, -25.83666812, -33.94310020, -200.33092901
3, 0.
*SHELL SECTION, ELSET=ELEM_2106, COMPOSITE, ORIENTATION=ORI_2106
1.38981664, 3, CFRP, 0.
** SOURCE_TET=3839
*ELSET, ELSET=ELEM_2107
2107
*ORIENTATION, NAME=ORI_2107, SYSTEM=RECTANGULAR
-30.18183681, -27.52499776, -201.17601932, -31.03383008, -28.48506871, -200.58241068
3, 0.
*SHELL SECTION, ELSET=ELEM_2107, COMPOSITE, ORIENTATION=ORI_2107
1.39794898, 3, CFRP, 0.
** SOURCE_TET=155
*ELSET, ELSET=ELEM_2108
2108
*ORIENTATION, NAME=ORI_2108, SYSTEM=RECTANGULAR
-19.38068866, 5.20786257, -207.94428677, -20.71046310, 5.58860582, -207.64977952
3, 0.
*SHELL SECTION, ELSET=ELEM_2108, COMPOSITE, ORIENTATION=ORI_2108
1.61610961, 3, CFRP, 0.
** SOURCE_TET=1933
*ELSET, ELSET=ELEM_2109
2109
*ORIENTATION, NAME=ORI_2109, SYSTEM=RECTANGULAR
-19.65457459, 7.59278114, -207.73108054, -20.94827518, 8.07141527, -207.41923415
3, 0.
*SHELL SECTION, ELSET=ELEM_2109, COMPOSITE, ORIENTATION=ORI_2109
1.59912014, 3, CFRP, 0.
** SOURCE_TET=2363
*ELSET, ELSET=ELEM_2110
2110
*ORIENTATION, NAME=ORI_2110, SYSTEM=RECTANGULAR
-21.91061743, 8.65584342, -207.15025315, -23.20063165, 9.12217509, -206.80616291
3, 0.
*SHELL SECTION, ELSET=ELEM_2110, COMPOSITE, ORIENTATION=ORI_2110
1.54719114, 3, CFRP, 0.
** SOURCE_TET=4466
*ELSET, ELSET=ELEM_2111
2111
*ORIENTATION, NAME=ORI_2111, SYSTEM=RECTANGULAR
-60.88161733, 60.21258296, -160.45729548, -61.62418439, 60.40665179, -159.26946912
3, 0.
*SHELL SECTION, ELSET=ELEM_2111, COMPOSITE, ORIENTATION=ORI_2111
1.28047693, 3, CFRP, 0.
** SOURCE_TET=5766
*ELSET, ELSET=ELEM_2112
2112
*ORIENTATION, NAME=ORI_2112, SYSTEM=RECTANGULAR
-68.73843188, 46.41383034, -164.93895862, -69.55294178, 46.51594879, -163.78737473
3, 0.
*SHELL SECTION, ELSET=ELEM_2112, COMPOSITE, ORIENTATION=ORI_2112
1.28436661, 3, CFRP, 0.
** SOURCE_TET=6172
*ELSET, ELSET=ELEM_2113
2113
*ORIENTATION, NAME=ORI_2113, SYSTEM=RECTANGULAR
-68.52283085, 53.64517507, -157.98269316, -69.27268206, 53.75754262, -156.78891901
3, 0.
*SHELL SECTION, ELSET=ELEM_2113, COMPOSITE, ORIENTATION=ORI_2113
1.27916026, 3, CFRP, 0.
** SOURCE_TET=6492
*ELSET, ELSET=ELEM_2114
2114
*ORIENTATION, NAME=ORI_2114, SYSTEM=RECTANGULAR
-44.89054814, 70.79857275, -163.72747483, -45.57165866, 71.22056982, -162.56213929
3, 0.
*SHELL SECTION, ELSET=ELEM_2114, COMPOSITE, ORIENTATION=ORI_2114
1.28333473, 3, CFRP, 0.
** SOURCE_TET=4603
*ELSET, ELSET=ELEM_2115
2115
*ORIENTATION, NAME=ORI_2115, SYSTEM=RECTANGULAR
-50.14404871, 72.78109406, -155.54755034, -50.81838916, 73.05140771, -154.33420970
3, 0.
*SHELL SECTION, ELSET=ELEM_2115, COMPOSITE, ORIENTATION=ORI_2115
1.27753103, 3, CFRP, 0.
** SOURCE_TET=5276
*ELSET, ELSET=ELEM_2116
2116
*ORIENTATION, NAME=ORI_2116, SYSTEM=RECTANGULAR
-59.01502695, 67.25295330, -153.19200451, -59.69990512, 67.43810642, -151.96862387
3, 0.
*SHELL SECTION, ELSET=ELEM_2116, COMPOSITE, ORIENTATION=ORI_2116
1.27646971, 3, CFRP, 0.
** SOURCE_TET=1727
*ELSET, ELSET=ELEM_2117
2117
*ORIENTATION, NAME=ORI_2117, SYSTEM=RECTANGULAR
14.54405278, -3.28731100, -208.87014762, 15.89418752, -3.64608033, -208.65010041
3, 0.
*SHELL SECTION, ELSET=ELEM_2117, COMPOSITE, ORIENTATION=ORI_2117
1.68510938, 3, CFRP, 0.
** SOURCE_TET=5555
*ELSET, ELSET=ELEM_2118
2118
*ORIENTATION, NAME=ORI_2118, SYSTEM=RECTANGULAR
44.84942737, -18.04812887, -197.39391839, 46.04359831, -18.35315917, -196.70043999
3, 0.
*SHELL SECTION, ELSET=ELEM_2118, COMPOSITE, ORIENTATION=ORI_2118
1.35869598, 3, CFRP, 0.
** SOURCE_TET=5953
*ELSET, ELSET=ELEM_2119
2119
*ORIENTATION, NAME=ORI_2119, SYSTEM=RECTANGULAR
40.28724819, -17.05975807, -199.79383861, 41.51445229, -17.38576026, -199.17118889
3, 0.
*SHELL SECTION, ELSET=ELEM_2119, COMPOSITE, ORIENTATION=ORI_2119
1.38186395, 3, CFRP, 0.
** SOURCE_TET=7299
*ELSET, ELSET=ELEM_2120
2120
*ORIENTATION, NAME=ORI_2120, SYSTEM=RECTANGULAR
85.65163857, 31.84571404, -148.09359444, 85.96929169, 32.40055829, -146.83214909
3, 0.
*SHELL SECTION, ELSET=ELEM_2120, COMPOSITE, ORIENTATION=ORI_2120
1.27389777, 3, CFRP, 0.
** SOURCE_TET=4773
*ELSET, ELSET=ELEM_2121
2121
*ORIENTATION, NAME=ORI_2121, SYSTEM=RECTANGULAR
91.42131734, 25.48206573, -138.22387606, 91.66640724, 26.01904437, -136.93873604
3, 0.
*SHELL SECTION, ELSET=ELEM_2121, COMPOSITE, ORIENTATION=ORI_2121
1.26934600, 3, CFRP, 0.
** SOURCE_TET=3180
*ELSET, ELSET=ELEM_2122
2122
*ORIENTATION, NAME=ORI_2122, SYSTEM=RECTANGULAR
81.50624120, 43.16292951, -146.27257224, 81.74584959, 43.76383412, -145.01499462
3, 0.
*SHELL SECTION, ELSET=ELEM_2122, COMPOSITE, ORIENTATION=ORI_2122
1.27358484, 3, CFRP, 0.
** SOURCE_TET=6892
*ELSET, ELSET=ELEM_2123
2123
*ORIENTATION, NAME=ORI_2123, SYSTEM=RECTANGULAR
82.34178766, 48.80879454, -136.84189361, 82.44791647, 49.39433322, -135.55897462
3, 0.
*SHELL SECTION, ELSET=ELEM_2123, COMPOSITE, ORIENTATION=ORI_2123
1.26932514, 3, CFRP, 0.
** SOURCE_TET=5440
*ELSET, ELSET=ELEM_2124
2124
*ORIENTATION, NAME=ORI_2124, SYSTEM=RECTANGULAR
86.93488649, -30.60721455, -146.55979733, 87.52427588, -30.35197052, -145.29984867
3, 0.
*SHELL SECTION, ELSET=ELEM_2124, COMPOSITE, ORIENTATION=ORI_2124
1.27323365, 3, CFRP, 0.
** SOURCE_TET=6629
*ELSET, ELSET=ELEM_2125
2125
*ORIENTATION, NAME=ORI_2125, SYSTEM=RECTANGULAR
91.86411251, -25.49152522, -137.36948280, 92.35344422, -25.14651589, -136.08826345
3, 0.
*SHELL SECTION, ELSET=ELEM_2125, COMPOSITE, ORIENTATION=ORI_2125
1.26913178, 3, CFRP, 0.
** SOURCE_TET=6092
*ELSET, ELSET=ELEM_2126
2126
*ORIENTATION, NAME=ORI_2126, SYSTEM=RECTANGULAR
82.93224178, -40.97460827, -146.04177872, 83.53398870, -40.80518199, -144.77323807
3, 0.
*SHELL SECTION, ELSET=ELEM_2126, COMPOSITE, ORIENTATION=ORI_2126
1.27337921, 3, CFRP, 0.
** SOURCE_TET=6216
*ELSET, ELSET=ELEM_2127
2127
*ORIENTATION, NAME=ORI_2127, SYSTEM=RECTANGULAR
81.61559389, -49.25410427, -137.63497322, 82.13808973, -49.02558494, -136.34084145
3, 0.
*SHELL SECTION, ELSET=ELEM_2127, COMPOSITE, ORIENTATION=ORI_2127
1.26927960, 3, CFRP, 0.
** SOURCE_TET=1360
*ELSET, ELSET=ELEM_2128
2128
*ORIENTATION, NAME=ORI_2128, SYSTEM=RECTANGULAR
23.81104898, 16.40752421, -205.69175277, 24.86752766, 17.24609859, -205.26672830
3, 0.
*SHELL SECTION, ELSET=ELEM_2128, COMPOSITE, ORIENTATION=ORI_2128
1.48316312, 3, CFRP, 0.
** SOURCE_TET=938
*ELSET, ELSET=ELEM_2129
2129
*ORIENTATION, NAME=ORI_2129, SYSTEM=RECTANGULAR
21.82936466, 17.97853311, -205.88317124, 22.83293301, 18.88352575, -205.46623133
3, 0.
*SHELL SECTION, ELSET=ELEM_2129, COMPOSITE, ORIENTATION=ORI_2129
1.48863053, 3, CFRP, 0.
** SOURCE_TET=1855
*ELSET, ELSET=ELEM_2130
2130
*ORIENTATION, NAME=ORI_2130, SYSTEM=RECTANGULAR
26.28785105, 11.52034488, -205.75994933, 27.48644441, 12.14525572, -205.34418450
3, 0.
*SHELL SECTION, ELSET=ELEM_2130, COMPOSITE, ORIENTATION=ORI_2130
1.49162495, 3, CFRP, 0.
** SOURCE_TET=687
*ELSET, ELSET=ELEM_2131
2131
*ORIENTATION, NAME=ORI_2131, SYSTEM=RECTANGULAR
27.82109809, 13.68332822, -205.03581781, 28.97965900, 14.35875162, -204.58688594
3, 0.
*SHELL SECTION, ELSET=ELEM_2131, COMPOSITE, ORIENTATION=ORI_2131
1.46865201, 3, CFRP, 0.
** SOURCE_TET=7256
*ELSET, ELSET=ELEM_2132
2132
*ORIENTATION, NAME=ORI_2132, SYSTEM=RECTANGULAR
26.41873043, 16.51250650, -204.97267333, 27.50106668, 17.30345940, -204.52218275
3, 0.
*SHELL SECTION, ELSET=ELEM_2132, COMPOSITE, ORIENTATION=ORI_2132
1.45456183, 3, CFRP, 0.
** SOURCE_TET=792
*ELSET, ELSET=ELEM_2133
2133
*ORIENTATION, NAME=ORI_2133, SYSTEM=RECTANGULAR
-10.76738524, -21.96237474, -206.94233848, -11.31692081, -23.21746384, -206.59196438
3, 0.
*SHELL SECTION, ELSET=ELEM_2133, COMPOSITE, ORIENTATION=ORI_2133
1.53855801, 3, CFRP, 0.
** SOURCE_TET=404
*ELSET, ELSET=ELEM_2134
2134
*ORIENTATION, NAME=ORI_2134, SYSTEM=RECTANGULAR
-10.06377022, -18.82374682, -207.67819388, -10.66633445, -20.06473361, -207.36695744
3, 0.
*SHELL SECTION, ELSET=ELEM_2134, COMPOSITE, ORIENTATION=ORI_2134
1.60459912, 3, CFRP, 0.
** SOURCE_TET=430
*ELSET, ELSET=ELEM_2135
2135
*ORIENTATION, NAME=ORI_2135, SYSTEM=RECTANGULAR
-11.32311352, -20.41092471, -207.21865079, -11.92555230, -21.64355328, -206.87558473
3, 0.
*SHELL SECTION, ELSET=ELEM_2135, COMPOSITE, ORIENTATION=ORI_2135
1.55127394, 3, CFRP, 0.
** SOURCE_TET=1071
*ELSET, ELSET=ELEM_2136
2136
*ORIENTATION, NAME=ORI_2136, SYSTEM=RECTANGULAR
-8.02774682, -18.08560831, -207.99801103, -8.56751998, -19.35935610, -207.70439309
3, 0.
*SHELL SECTION, ELSET=ELEM_2136, COMPOSITE, ORIENTATION=ORI_2136
1.63024139, 3, CFRP, 0.
** SOURCE_TET=2945
*ELSET, ELSET=ELEM_2137
2137
*ORIENTATION, NAME=ORI_2137, SYSTEM=RECTANGULAR
-17.27408875, -22.91619602, -205.75160931, -18.01069162, -24.04815983, -205.33199743
3, 0.
*SHELL SECTION, ELSET=ELEM_2137, COMPOSITE, ORIENTATION=ORI_2137
1.48456275, 3, CFRP, 0.
** SOURCE_TET=1700
*ELSET, ELSET=ELEM_2138
2138
*ORIENTATION, NAME=ORI_2138, SYSTEM=RECTANGULAR
-14.78267953, -22.71242363, -206.23391564, -15.46843801, -23.88269456, -205.83366413
3, 0.
*SHELL SECTION, ELSET=ELEM_2138, COMPOSITE, ORIENTATION=ORI_2138
1.49817514, 3, CFRP, 0.
** SOURCE_TET=332
*ELSET, ELSET=ELEM_2139
2139
*ORIENTATION, NAME=ORI_2139, SYSTEM=RECTANGULAR
-13.59817850, -20.52085286, -206.90857936, -14.31079610, -21.69029950, -206.55563359
3, 0.
*SHELL SECTION, ELSET=ELEM_2139, COMPOSITE, ORIENTATION=ORI_2139
1.54353213, 3, CFRP, 0.
** SOURCE_TET=2440
*ELSET, ELSET=ELEM_2140
2140
*ORIENTATION, NAME=ORI_2140, SYSTEM=RECTANGULAR
-23.93335884, -18.96051237, -205.12759108, -24.91992657, -19.87088207, -204.68271903
3, 0.
*SHELL SECTION, ELSET=ELEM_2140, COMPOSITE, ORIENTATION=ORI_2140
1.46314085, 3, CFRP, 0.
** SOURCE_TET=1922
*ELSET, ELSET=ELEM_2141
2141
*ORIENTATION, NAME=ORI_2141, SYSTEM=RECTANGULAR
-25.05075507, -22.71387173, -203.99534089, -25.97021415, -23.67268483, -203.51029200
3, 0.
*SHELL SECTION, ELSET=ELEM_2141, COMPOSITE, ORIENTATION=ORI_2141
1.44218278, 3, CFRP, 0.
** SOURCE_TET=3826
*ELSET, ELSET=ELEM_2142
2142
*ORIENTATION, NAME=ORI_2142, SYSTEM=RECTANGULAR
-18.99292774, -26.08131637, -204.57243929, -19.71212826, -27.20282420, -204.09812844
3, 0.
*SHELL SECTION, ELSET=ELEM_2142, COMPOSITE, ORIENTATION=ORI_2142
1.44766116, 3, CFRP, 0.
** SOURCE_TET=3650
*ELSET, ELSET=ELEM_2143
2143
*ORIENTATION, NAME=ORI_2143, SYSTEM=RECTANGULAR
-22.70146986, -26.41524440, -203.63286774, -23.47425656, -27.49119897, -203.13776928
3, 0.
*SHELL SECTION, ELSET=ELEM_2143, COMPOSITE, ORIENTATION=ORI_2143
1.43233538, 3, CFRP, 0.
** SOURCE_TET=1839
*ELSET, ELSET=ELEM_2144
2144
*ORIENTATION, NAME=ORI_2144, SYSTEM=RECTANGULAR
-13.00333704, -23.64176345, -206.26178271, -13.55690451, -24.87978471, -205.86070117
3, 0.
*SHELL SECTION, ELSET=ELEM_2144, COMPOSITE, ORIENTATION=ORI_2144
1.49904525, 3, CFRP, 0.
** SOURCE_TET=5625
*ELSET, ELSET=ELEM_2145
2145
*ORIENTATION, NAME=ORI_2145, SYSTEM=RECTANGULAR
48.96779822, 52.89925223, -178.68879783, 49.40202940, 53.79157860, -177.68122801
3, 0.
*SHELL SECTION, ELSET=ELEM_2145, COMPOSITE, ORIENTATION=ORI_2145
1.30229282, 3, CFRP, 0.
** SOURCE_TET=4515
*ELSET, ELSET=ELEM_2146
2146
*ORIENTATION, NAME=ORI_2146, SYSTEM=RECTANGULAR
47.21772980, 46.62989656, -184.29211565, 47.75106266, 47.54367156, -183.35372803
3, 0.
*SHELL SECTION, ELSET=ELEM_2146, COMPOSITE, ORIENTATION=ORI_2146
1.31050539, 3, CFRP, 0.
** SOURCE_TET=4406
*ELSET, ELSET=ELEM_2147
2147
*ORIENTATION, NAME=ORI_2147, SYSTEM=RECTANGULAR
41.37202455, 46.61657258, -187.91377982, 41.89621697, 47.57301678, -187.01353718
3, 0.
*SHELL SECTION, ELSET=ELEM_2147, COMPOSITE, ORIENTATION=ORI_2147
1.31701636, 3, CFRP, 0.
** SOURCE_TET=5214
*ELSET, ELSET=ELEM_2148
2148
*ORIENTATION, NAME=ORI_2148, SYSTEM=RECTANGULAR
35.79678244, 49.85052802, -188.64903533, 36.23127332, 50.86282045, -187.76219729
3, 0.
*SHELL SECTION, ELSET=ELEM_2148, COMPOSITE, ORIENTATION=ORI_2148
1.32318425, 3, CFRP, 0.
** SOURCE_TET=6064
*ELSET, ELSET=ELEM_2149
2149
*ORIENTATION, NAME=ORI_2149, SYSTEM=RECTANGULAR
57.19745918, 52.03727198, -172.58740190, 57.60126742, 52.85875450, -171.50939199
3, 0.
*SHELL SECTION, ELSET=ELEM_2149, COMPOSITE, ORIENTATION=ORI_2149
1.29185677, 3, CFRP, 0.
** SOURCE_TET=6485
*ELSET, ELSET=ELEM_2150
2150
*ORIENTATION, NAME=ORI_2150, SYSTEM=RECTANGULAR
59.51897593, 58.31669183, -164.13633487, 59.79167302, 59.08274967, -162.97927320
3, 0.
*SHELL SECTION, ELSET=ELEM_2150, COMPOSITE, ORIENTATION=ORI_2150
1.28518498, 3, CFRP, 0.
** SOURCE_TET=7343
*ELSET, ELSET=ELEM_2151
2151
*ORIENTATION, NAME=ORI_2151, SYSTEM=RECTANGULAR
52.93418296, 64.84720867, -163.63959013, 53.13278115, 65.62801681, -162.47730901
3, 0.
*SHELL SECTION, ELSET=ELEM_2151, COMPOSITE, ORIENTATION=ORI_2151
1.28486562, 3, CFRP, 0.
** SOURCE_TET=5274
*ELSET, ELSET=ELEM_2152
2152
*ORIENTATION, NAME=ORI_2152, SYSTEM=RECTANGULAR
62.75466619, 44.08966917, -173.31123613, 63.28195003, 44.84326770, -172.23696381
3, 0.
*SHELL SECTION, ELSET=ELEM_2152, COMPOSITE, ORIENTATION=ORI_2152
1.29180980, 3, CFRP, 0.
** SOURCE_TET=6244
*ELSET, ELSET=ELEM_2153
2153
*ORIENTATION, NAME=ORI_2153, SYSTEM=RECTANGULAR
52.48807747, 39.72998578, -184.83334001, 53.15631422, 40.56487196, -183.90790784
3, 0.
*SHELL SECTION, ELSET=ELEM_2153, COMPOSITE, ORIENTATION=ORI_2153
1.31088912, 3, CFRP, 0.
** SOURCE_TET=5978
*ELSET, ELSET=ELEM_2154
2154
*ORIENTATION, NAME=ORI_2154, SYSTEM=RECTANGULAR
59.81464518, 38.03011032, -179.97965029, 60.45630268, 38.79506038, -178.97808799
3, 0.
*SHELL SECTION, ELSET=ELEM_2154, COMPOSITE, ORIENTATION=ORI_2154
1.30357432, 3, CFRP, 0.
** SOURCE_TET=4808
*ELSET, ELSET=ELEM_2155
2155
*ORIENTATION, NAME=ORI_2155, SYSTEM=RECTANGULAR
73.83352358, 47.16305890, -156.59522031, 74.13818098, 47.84052245, -155.39179728
3, 0.
*SHELL SECTION, ELSET=ELEM_2155, COMPOSITE, ORIENTATION=ORI_2155
1.27797246, 3, CFRP, 0.
** SOURCE_TET=4132
*ELSET, ELSET=ELEM_2156
2156
*ORIENTATION, NAME=ORI_2156, SYSTEM=RECTANGULAR
70.84179559, 41.13142986, -166.23805540, 71.31967466, 41.81982057, -165.09886717
3, 0.
*SHELL SECTION, ELSET=ELEM_2156, COMPOSITE, ORIENTATION=ORI_2156
1.28605247, 3, CFRP, 0.
** SOURCE_TET=5137
*ELSET, ELSET=ELEM_2157
2157
*ORIENTATION, NAME=ORI_2157, SYSTEM=RECTANGULAR
68.09119828, 56.41501188, -155.23604135, 68.31022029, 57.10699373, -154.02229077
3, 0.
*SHELL SECTION, ELSET=ELEM_2157, COMPOSITE, ORIENTATION=ORI_2157
1.27728987, 3, CFRP, 0.
** SOURCE_TET=4225
*ELSET, ELSET=ELEM_2158
2158
*ORIENTATION, NAME=ORI_2158, SYSTEM=RECTANGULAR
-42.97657026, -16.13559406, -198.67710118, -44.07041441, -16.73912945, -198.01434179
3, 0.
*SHELL SECTION, ELSET=ELEM_2158, COMPOSITE, ORIENTATION=ORI_2158
1.36952424, 3, CFRP, 0.
** SOURCE_TET=4439
*ELSET, ELSET=ELEM_2159
2159
*ORIENTATION, NAME=ORI_2159, SYSTEM=RECTANGULAR
-46.62509385, -13.83112691, -197.16211886, -47.73888300, -14.37991464, -196.48513603
3, 0.
*SHELL SECTION, ELSET=ELEM_2159, COMPOSITE, ORIENTATION=ORI_2159
1.36136103, 3, CFRP, 0.
** SOURCE_TET=5025
*ELSET, ELSET=ELEM_2160
2160
*ORIENTATION, NAME=ORI_2160, SYSTEM=RECTANGULAR
-43.05279757, -5.54483211, -199.92711082, -44.27916581, -5.87143648, -199.30313124
3, 0.
*SHELL SECTION, ELSET=ELEM_2160, COMPOSITE, ORIENTATION=ORI_2160
1.38308084, 3, CFRP, 0.
** SOURCE_TET=3007
*ELSET, ELSET=ELEM_2161
2161
*ORIENTATION, NAME=ORI_2161, SYSTEM=RECTANGULAR
-46.90280388, -8.72707128, -197.70259981, -48.08229717, -9.11573244, -197.02603636
3, 0.
*SHELL SECTION, ELSET=ELEM_2161, COMPOSITE, ORIENTATION=ORI_2161
1.36865354, 3, CFRP, 0.
** SOURCE_TET=3577
*ELSET, ELSET=ELEM_2162
2162
*ORIENTATION, NAME=ORI_2162, SYSTEM=RECTANGULAR
8.03166182, 33.15533048, -203.88891524, 8.24015440, 34.46213830, -203.39013257
3, 0.
*SHELL SECTION, ELSET=ELEM_2162, COMPOSITE, ORIENTATION=ORI_2162
1.43157196, 3, CFRP, 0.
** SOURCE_TET=2942
*ELSET, ELSET=ELEM_2163
2163
*ORIENTATION, NAME=ORI_2163, SYSTEM=RECTANGULAR
12.24331912, 26.58109440, -205.57561413, 12.71527179, 27.84166075, -205.14175567
3, 0.
*SHELL SECTION, ELSET=ELEM_2163, COMPOSITE, ORIENTATION=ORI_2163
1.48030567, 3, CFRP, 0.
** SOURCE_TET=2625
*ELSET, ELSET=ELEM_2164
2164
*ORIENTATION, NAME=ORI_2164, SYSTEM=RECTANGULAR
7.62598808, 29.14528012, -205.29327973, 7.84411722, 30.47107047, -204.85203195
3, 0.
*SHELL SECTION, ELSET=ELEM_2164, COMPOSITE, ORIENTATION=ORI_2164
1.47149742, 3, CFRP, 0.
** SOURCE_TET=2551
*ELSET, ELSET=ELEM_2165
2165
*ORIENTATION, NAME=ORI_2165, SYSTEM=RECTANGULAR
9.59499088, 27.13534413, -205.72443756, 9.98057371, 28.42768541, -205.29878523
3, 0.
*SHELL SECTION, ELSET=ELEM_2165, COMPOSITE, ORIENTATION=ORI_2165
1.48438692, 3, CFRP, 0.
** SOURCE_TET=2057
*ELSET, ELSET=ELEM_2166
2166
*ORIENTATION, NAME=ORI_2166, SYSTEM=RECTANGULAR
5.01439559, 35.15024345, -203.40505424, 5.05675417, 36.47169218, -202.90307914
3, 0.
*SHELL SECTION, ELSET=ELEM_2166, COMPOSITE, ORIENTATION=ORI_2166
1.42741907, 3, CFRP, 0.
** SOURCE_TET=5386
*ELSET, ELSET=ELEM_2167
2167
*ORIENTATION, NAME=ORI_2167, SYSTEM=RECTANGULAR
4.20548774, 39.08545690, -201.87076792, 4.18903521, 40.37969172, -201.30095605
3, 0.
*SHELL SECTION, ELSET=ELEM_2167, COMPOSITE, ORIENTATION=ORI_2167
1.39948857, 3, CFRP, 0.
** SOURCE_TET=4999
*ELSET, ELSET=ELEM_2168
2168
*ORIENTATION, NAME=ORI_2168, SYSTEM=RECTANGULAR
-36.16743285, 74.41298928, -165.30972791, -36.82013179, 74.92430673, -164.16406716
3, 0.
*SHELL SECTION, ELSET=ELEM_2168, COMPOSITE, ORIENTATION=ORI_2168
1.28436399, 3, CFRP, 0.
** SOURCE_TET=3853
*ELSET, ELSET=ELEM_2169
2169
*ORIENTATION, NAME=ORI_2169, SYSTEM=RECTANGULAR
-32.59024124, 70.81261873, -172.12217690, -33.24315297, 71.42884511, -171.02948695
3, 0.
*SHELL SECTION, ELSET=ELEM_2169, COMPOSITE, ORIENTATION=ORI_2169
1.29297113, 3, CFRP, 0.
** SOURCE_TET=6252
*ELSET, ELSET=ELEM_2170
2170
*ORIENTATION, NAME=ORI_2170, SYSTEM=RECTANGULAR
-36.47694067, 64.67720409, -176.55714390, -37.18745773, 65.31996322, -175.51693902
3, 0.
*SHELL SECTION, ELSET=ELEM_2170, COMPOSITE, ORIENTATION=ORI_2170
1.29747772, 3, CFRP, 0.
** SOURCE_TET=4832
*ELSET, ELSET=ELEM_2171
2171
*ORIENTATION, NAME=ORI_2171, SYSTEM=RECTANGULAR
-46.14006574, 79.71522698, -147.15980314, -46.74878411, 79.92679889, -145.90095475
3, 0.
*SHELL SECTION, ELSET=ELEM_2171, COMPOSITE, ORIENTATION=ORI_2171
1.27332544, 3, CFRP, 0.
** SOURCE_TET=7382
*ELSET, ELSET=ELEM_2172
2172
*ORIENTATION, NAME=ORI_2172, SYSTEM=RECTANGULAR
-31.19020472, 80.57840076, -159.16085906, -31.77450233, 81.06396423, -157.96803703
3, 0.
*SHELL SECTION, ELSET=ELEM_2172, COMPOSITE, ORIENTATION=ORI_2172
1.27918303, 3, CFRP, 0.
** SOURCE_TET=5594
*ELSET, ELSET=ELEM_2173
2173
*ORIENTATION, NAME=ORI_2173, SYSTEM=RECTANGULAR
-35.86668182, 83.90278428, -149.20777140, -36.46508224, 84.20642165, -147.96289338
3, 0.
*SHELL SECTION, ELSET=ELEM_2173, COMPOSITE, ORIENTATION=ORI_2173
1.27402580, 3, CFRP, 0.
** SOURCE_TET=1264
*ELSET, ELSET=ELEM_2174
2174
*ORIENTATION, NAME=ORI_2174, SYSTEM=RECTANGULAR
-13.95108970, -2.70776225, -208.96184293, -15.33409970, -2.91466121, -208.75094923
3, 0.
*SHELL SECTION, ELSET=ELEM_2174, COMPOSITE, ORIENTATION=ORI_2174
1.68615806, 3, CFRP, 0.
** SOURCE_TET=2125
*ELSET, ELSET=ELEM_2175
2175
*ORIENTATION, NAME=ORI_2175, SYSTEM=RECTANGULAR
-15.39783636, 0.70458195, -208.78482411, -16.79452936, 0.73991654, -208.56573479
3, 0.
*SHELL SECTION, ELSET=ELEM_2175, COMPOSITE, ORIENTATION=ORI_2175
1.68474746, 3, CFRP, 0.
** SOURCE_TET=2216
*ELSET, ELSET=ELEM_2176
2176
*ORIENTATION, NAME=ORI_2176, SYSTEM=RECTANGULAR
-15.44127871, -1.30054889, -208.77657776, -16.83338213, -1.40452553, -208.55022203
3, 0.
*SHELL SECTION, ELSET=ELEM_2176, COMPOSITE, ORIENTATION=ORI_2176
1.68468869, 3, CFRP, 0.
** SOURCE_TET=6168
*ELSET, ELSET=ELEM_2177
2177
*ORIENTATION, NAME=ORI_2177, SYSTEM=RECTANGULAR
64.30083358, -35.13647950, -177.59129487, 65.26323276, -35.29545102, -176.56732422
3, 0.
*SHELL SECTION, ELSET=ELEM_2177, COMPOSITE, ORIENTATION=ORI_2177
1.30022454, 3, CFRP, 0.
** SOURCE_TET=6761
*ELSET, ELSET=ELEM_2178
2178
*ORIENTATION, NAME=ORI_2178, SYSTEM=RECTANGULAR
66.43085532, -29.00526640, -178.45944275, 67.41009387, -29.10496066, -177.44398575
3, 0.
*SHELL SECTION, ELSET=ELEM_2178, COMPOSITE, ORIENTATION=ORI_2178
1.30122888, 3, CFRP, 0.
** SOURCE_TET=6982
*ELSET, ELSET=ELEM_2179
2179
*ORIENTATION, NAME=ORI_2179, SYSTEM=RECTANGULAR
62.30745246, -24.79044024, -183.86036683, 63.35616962, -24.91584557, -182.91990640
3, 0.
*SHELL SECTION, ELSET=ELEM_2179, COMPOSITE, ORIENTATION=ORI_2179
1.30884528, 3, CFRP, 0.
** SOURCE_TET=1483
*ELSET, ELSET=ELEM_2180
2180
*ORIENTATION, NAME=ORI_2180, SYSTEM=RECTANGULAR
28.56917454, -9.32172112, -205.33654654, 29.86674781, -9.67340859, -204.89766213
3, 0.
*SHELL SECTION, ELSET=ELEM_2180, COMPOSITE, ORIENTATION=ORI_2180
1.47050476, 3, CFRP, 0.
** SOURCE_TET=1129
*ELSET, ELSET=ELEM_2181
2181
*ORIENTATION, NAME=ORI_2181, SYSTEM=RECTANGULAR
22.67285611, -9.29922807, -206.91051416, 23.98075000, -9.69851317, -206.54997983
3, 0.
*SHELL SECTION, ELSET=ELEM_2181, COMPOSITE, ORIENTATION=ORI_2181
1.54335737, 3, CFRP, 0.
** SOURCE_TET=1341
*ELSET, ELSET=ELEM_2182
2182
*ORIENTATION, NAME=ORI_2182, SYSTEM=RECTANGULAR
23.84355150, -7.59376026, -206.78470189, 25.17428961, -7.90956547, -206.42497538
3, 0.
*SHELL SECTION, ELSET=ELEM_2182, COMPOSITE, ORIENTATION=ORI_2182
1.53709114, 3, CFRP, 0.
** SOURCE_TET=1493
*ELSET, ELSET=ELEM_2183
2183
*ORIENTATION, NAME=ORI_2183, SYSTEM=RECTANGULAR
26.39255481, -7.46188761, -206.13959134, 27.72035314, -7.74412389, -205.74298794
3, 0.
*SHELL SECTION, ELSET=ELEM_2183, COMPOSITE, ORIENTATION=ORI_2183
1.49910545, 3, CFRP, 0.
** SOURCE_TET=2204
*ELSET, ELSET=ELEM_2184
2184
*ORIENTATION, NAME=ORI_2184, SYSTEM=RECTANGULAR
33.95604396, -9.53723221, -203.53173523, 35.25649536, -9.75092106, -203.01874085
3, 0.
*SHELL SECTION, ELSET=ELEM_2184, COMPOSITE, ORIENTATION=ORI_2184
1.43002713, 3, CFRP, 0.
** SOURCE_TET=1530
*ELSET, ELSET=ELEM_2185
2185
*ORIENTATION, NAME=ORI_2185, SYSTEM=RECTANGULAR
34.92163625, -12.41356612, -202.80210019, 36.20484232, -12.68834385, -202.27495754
3, 0.
*SHELL SECTION, ELSET=ELEM_2185, COMPOSITE, ORIENTATION=ORI_2185
1.42081749, 3, CFRP, 0.
** SOURCE_TET=1701
*ELSET, ELSET=ELEM_2186
2186
*ORIENTATION, NAME=ORI_2186, SYSTEM=RECTANGULAR
30.94685943, -8.42998603, -204.67534689, 32.26720917, -8.65104836, -204.21948726
3, 0.
*SHELL SECTION, ELSET=ELEM_2186, COMPOSITE, ORIENTATION=ORI_2186
1.44859707, 3, CFRP, 0.
** SOURCE_TET=7065
*ELSET, ELSET=ELEM_2187
2187
*ORIENTATION, NAME=ORI_2187, SYSTEM=RECTANGULAR
-51.01008727, 80.57531390, -137.92883294, -51.60710898, 80.65116714, -136.64906289
3, 0.
*SHELL SECTION, ELSET=ELEM_2187, COMPOSITE, ORIENTATION=ORI_2187
1.26973057, 3, CFRP, 0.
** SOURCE_TET=6905
*ELSET, ELSET=ELEM_2188
2188
*ORIENTATION, NAME=ORI_2188, SYSTEM=RECTANGULAR
-64.88022613, 67.86290472, -142.46051054, -65.48376758, 67.86314416, -141.18155094
3, 0.
*SHELL SECTION, ELSET=ELEM_2188, COMPOSITE, ORIENTATION=ORI_2188
1.27086258, 3, CFRP, 0.
** SOURCE_TET=6989
*ELSET, ELSET=ELEM_2189
2189
*ORIENTATION, NAME=ORI_2189, SYSTEM=RECTANGULAR
-60.88168046, 74.23026769, -135.56934736, -61.45066101, 74.20151804, -134.27496157
3, 0.
*SHELL SECTION, ELSET=ELEM_2189, COMPOSITE, ORIENTATION=ORI_2189
1.26918566, 3, CFRP, 0.
** SOURCE_TET=3142
*ELSET, ELSET=ELEM_2190
2190
*ORIENTATION, NAME=ORI_2190, SYSTEM=RECTANGULAR
-15.29972312, -40.29435293, -200.04762024, -15.57047264, -41.54106716, -199.43737577
3, 0.
*SHELL SECTION, ELSET=ELEM_2190, COMPOSITE, ORIENTATION=ORI_2190
1.38550663, 3, CFRP, 0.
** SOURCE_TET=7302
*ELSET, ELSET=ELEM_2191
2191
*ORIENTATION, NAME=ORI_2191, SYSTEM=RECTANGULAR
-4.66800241, -45.36777613, -198.84598191, -4.61450849, -46.60973153, -198.17167842
3, 0.
*SHELL SECTION, ELSET=ELEM_2191, COMPOSITE, ORIENTATION=ORI_2191
1.37451649, 3, CFRP, 0.
** SOURCE_TET=3464
*ELSET, ELSET=ELEM_2192
2192
*ORIENTATION, NAME=ORI_2192, SYSTEM=RECTANGULAR
-11.18973554, -38.95211058, -201.27614466, -11.39073663, -40.22103135, -200.68501131
3, 0.
*SHELL SECTION, ELSET=ELEM_2192, COMPOSITE, ORIENTATION=ORI_2192
1.39535367, 3, CFRP, 0.
** SOURCE_TET=3467
*ELSET, ELSET=ELEM_2193
2193
*ORIENTATION, NAME=ORI_2193, SYSTEM=RECTANGULAR
-7.14407785, -41.40531286, -200.63522021, -7.23302724, -42.68106023, -200.03143495
3, 0.
*SHELL SECTION, ELSET=ELEM_2193, COMPOSITE, ORIENTATION=ORI_2193
1.38969827, 3, CFRP, 0.
** SOURCE_TET=2153
*ELSET, ELSET=ELEM_2194
2194
*ORIENTATION, NAME=ORI_2194, SYSTEM=RECTANGULAR
12.05772791, -32.56527607, -203.66379284, 12.59673359, -33.77136573, -203.15899525
3, 0.
*SHELL SECTION, ELSET=ELEM_2194, COMPOSITE, ORIENTATION=ORI_2194
1.43030286, 3, CFRP, 0.
** SOURCE_TET=3414
*ELSET, ELSET=ELEM_2195
2195
*ORIENTATION, NAME=ORI_2195, SYSTEM=RECTANGULAR
10.31219078, -36.01648819, -202.60630602, 10.78845775, -37.23810107, -202.07637043
3, 0.
*SHELL SECTION, ELSET=ELEM_2195, COMPOSITE, ORIENTATION=ORI_2195
1.41600561, 3, CFRP, 0.
** SOURCE_TET=3063
*ELSET, ELSET=ELEM_2196
2196
*ORIENTATION, NAME=ORI_2196, SYSTEM=RECTANGULAR
13.51712965, -39.44416928, -200.78669711, 14.03676945, -40.60992162, -200.17760274
3, 0.
*SHELL SECTION, ELSET=ELEM_2196, COMPOSITE, ORIENTATION=ORI_2196
1.38686073, 3, CFRP, 0.
** SOURCE_TET=3455
*ELSET, ELSET=ELEM_2197
2197
*ORIENTATION, NAME=ORI_2197, SYSTEM=RECTANGULAR
-42.43058822, -21.69554898, -197.75431736, -43.44942928, -22.38851544, -197.06022775
3, 0.
*SHELL SECTION, ELSET=ELEM_2197, COMPOSITE, ORIENTATION=ORI_2197
1.36434042, 3, CFRP, 0.
** SOURCE_TET=3360
*ELSET, ELSET=ELEM_2198
2198
*ORIENTATION, NAME=ORI_2198, SYSTEM=RECTANGULAR
-37.66210549, -23.14596866, -199.57636916, -38.62519136, -23.96865702, -198.94736244
3, 0.
*SHELL SECTION, ELSET=ELEM_2198, COMPOSITE, ORIENTATION=ORI_2198
1.37563765, 3, CFRP, 0.
** SOURCE_TET=1622
*ELSET, ELSET=ELEM_2199
2199
*ORIENTATION, NAME=ORI_2199, SYSTEM=RECTANGULAR
-9.60216358, -15.58241915, -208.29721996, -10.27861876, -16.79594111, -208.03307445
3, 0.
*SHELL SECTION, ELSET=ELEM_2199, COMPOSITE, ORIENTATION=ORI_2199
1.65711558, 3, CFRP, 0.
** SOURCE_TET=3102
*ELSET, ELSET=ELEM_2200
2200
*ORIENTATION, NAME=ORI_2200, SYSTEM=RECTANGULAR
-7.70271449, -16.04266231, -208.39106105, -8.28394829, -17.30508176, -208.12940402
3, 0.
*SHELL SECTION, ELSET=ELEM_2200, COMPOSITE, ORIENTATION=ORI_2200
1.66723096, 3, CFRP, 0.
** SOURCE_TET=1860
*ELSET, ELSET=ELEM_2201
2201
*ORIENTATION, NAME=ORI_2201, SYSTEM=RECTANGULAR
-6.17485393, -14.78441921, -208.68957196, -6.71903589, -16.06838549, -208.45441971
3, 0.
*SHELL SECTION, ELSET=ELEM_2201, COMPOSITE, ORIENTATION=ORI_2201
1.68279028, 3, CFRP, 0.
** SOURCE_TET=6771
*ELSET, ELSET=ELEM_2202
2202
*ORIENTATION, NAME=ORI_2202, SYSTEM=RECTANGULAR
36.92131321, 85.16682616, -145.36692957, 36.70963060, 85.74864098, -144.09544148
3, 0.
*SHELL SECTION, ELSET=ELEM_2202, COMPOSITE, ORIENTATION=ORI_2202
1.27312326, 3, CFRP, 0.
** SOURCE_TET=7012
*ELSET, ELSET=ELEM_2203
2203
*ORIENTATION, NAME=ORI_2203, SYSTEM=RECTANGULAR
28.81293525, 89.75717612, -141.26182996, 28.51220483, 90.30685654, -139.99399217
3, 0.
*SHELL SECTION, ELSET=ELEM_2203, COMPOSITE, ORIENTATION=ORI_2203
1.27041709, 3, CFRP, 0.
** SOURCE_TET=6985
*ELSET, ELSET=ELEM_2204
2204
*ORIENTATION, NAME=ORI_2204, SYSTEM=RECTANGULAR
35.76502907, 80.87972878, -155.69970025, 35.64865901, 81.60704671, -154.49244442
3, 0.
*SHELL SECTION, ELSET=ELEM_2204, COMPOSITE, ORIENTATION=ORI_2204
1.27712357, 3, CFRP, 0.
** SOURCE_TET=5294
*ELSET, ELSET=ELEM_2205
2205
*ORIENTATION, NAME=ORI_2205, SYSTEM=RECTANGULAR
-16.71055054, 78.97779147, -168.27135361, -17.22627961, 79.68370122, -167.15972645
3, 0.
*SHELL SECTION, ELSET=ELEM_2205, COMPOSITE, ORIENTATION=ORI_2205
1.28817296, 3, CFRP, 0.
** SOURCE_TET=6584
*ELSET, ELSET=ELEM_2206
2206
*ORIENTATION, NAME=ORI_2206, SYSTEM=RECTANGULAR
-21.76554536, 82.63566750, -160.98924860, -22.30853047, 83.19819821, -159.81080626
3, 0.
*SHELL SECTION, ELSET=ELEM_2206, COMPOSITE, ORIENTATION=ORI_2206
1.28011179, 3, CFRP, 0.
** SOURCE_TET=6971
*ELSET, ELSET=ELEM_2207
2207
*ORIENTATION, NAME=ORI_2207, SYSTEM=RECTANGULAR
-15.45736131, 87.33475630, -155.22911517, -15.96522949, 87.84444703, -154.01162378
3, 0.
*SHELL SECTION, ELSET=ELEM_2207, COMPOSITE, ORIENTATION=ORI_2207
1.27717125, 3, CFRP, 0.
** SOURCE_TET=1996
*ELSET, ELSET=ELEM_2208
2208
*ORIENTATION, NAME=ORI_2208, SYSTEM=RECTANGULAR
15.17175643, 5.38741000, -208.68517449, 16.46952001, 5.89369540, -208.44127946
3, 0.
*SHELL SECTION, ELSET=ELEM_2208, COMPOSITE, ORIENTATION=ORI_2208
1.68260384, 3, CFRP, 0.
** SOURCE_TET=3005
*ELSET, ELSET=ELEM_2209
2209
*ORIENTATION, NAME=ORI_2209, SYSTEM=RECTANGULAR
13.43305887, 4.04914986, -208.99497524, 14.78100070, 4.42503910, -208.79062233
3, 0.
*SHELL SECTION, ELSET=ELEM_2209, COMPOSITE, ORIENTATION=ORI_2209
1.68633068, 3, CFRP, 0.
** SOURCE_TET=2709
*ELSET, ELSET=ELEM_2210
2210
*ORIENTATION, NAME=ORI_2210, SYSTEM=RECTANGULAR
-14.32492520, 15.78400874, -207.67629635, -15.28537256, 16.77268148, -207.35996251
3, 0.
*SHELL SECTION, ELSET=ELEM_2210, COMPOSITE, ORIENTATION=ORI_2210
1.58210886, 3, CFRP, 0.
** SOURCE_TET=3219
*ELSET, ELSET=ELEM_2211
2211
*ORIENTATION, NAME=ORI_2211, SYSTEM=RECTANGULAR
-10.20681355, 15.37500002, -208.26674876, -11.00052809, 16.51306708, -207.99321521
3, 0.
*SHELL SECTION, ELSET=ELEM_2211, COMPOSITE, ORIENTATION=ORI_2211
1.64417219, 3, CFRP, 0.
** SOURCE_TET=1719
*ELSET, ELSET=ELEM_2212
2212
*ORIENTATION, NAME=ORI_2212, SYSTEM=RECTANGULAR
-12.17417418, 14.45013767, -208.17540027, -13.06316113, 15.51539915, -207.90168482
3, 0.
*SHELL SECTION, ELSET=ELEM_2212, COMPOSITE, ORIENTATION=ORI_2212
1.63722312, 3, CFRP, 0.
** SOURCE_TET=971
*ELSET, ELSET=ELEM_2213
2213
*ORIENTATION, NAME=ORI_2213, SYSTEM=RECTANGULAR
27.08356009, 9.16908063, -205.79733166, 28.32151335, 9.71251904, -205.38242635
3, 0.
*SHELL SECTION, ELSET=ELEM_2213, COMPOSITE, ORIENTATION=ORI_2213
1.49264336, 3, CFRP, 0.
** SOURCE_TET=7227
*ELSET, ELSET=ELEM_2214
2214
*ORIENTATION, NAME=ORI_2214, SYSTEM=RECTANGULAR
23.31146469, 7.87045905, -206.90361670, 24.57021016, 8.40772680, -206.54738192
3, 0.
*SHELL SECTION, ELSET=ELEM_2214, COMPOSITE, ORIENTATION=ORI_2214
1.52997160, 3, CFRP, 0.
** SOURCE_TET=2354
*ELSET, ELSET=ELEM_2215
2215
*ORIENTATION, NAME=ORI_2215, SYSTEM=RECTANGULAR
25.52523688, 7.56086129, -206.37270355, 26.81158142, 8.00273921, -205.98532565
3, 0.
*SHELL SECTION, ELSET=ELEM_2215, COMPOSITE, ORIENTATION=ORI_2215
1.50849748, 3, CFRP, 0.
** SOURCE_TET=1190
*ELSET, ELSET=ELEM_2216
2216
*ORIENTATION, NAME=ORI_2216, SYSTEM=RECTANGULAR
30.59679830, 13.20423346, -204.23962588, 31.74895284, 13.86938274, -203.75992145
3, 0.
*SHELL SECTION, ELSET=ELEM_2216, COMPOSITE, ORIENTATION=ORI_2216
1.44128358, 3, CFRP, 0.
** SOURCE_TET=1379
*ELSET, ELSET=ELEM_2217
2217
*ORIENTATION, NAME=ORI_2217, SYSTEM=RECTANGULAR
31.63269212, 10.59365260, -204.23328063, 32.85870784, 11.10880209, -203.75212946
3, 0.
*SHELL SECTION, ELSET=ELEM_2217, COMPOSITE, ORIENTATION=ORI_2217
1.44678199, 3, CFRP, 0.
** SOURCE_TET=7222
*ELSET, ELSET=ELEM_2218
2218
*ORIENTATION, NAME=ORI_2218, SYSTEM=RECTANGULAR
29.65428305, 8.71313949, -205.07104380, 30.91756754, 9.16560183, -204.62451261
3, 0.
*SHELL SECTION, ELSET=ELEM_2218, COMPOSITE, ORIENTATION=ORI_2218
1.47310209, 3, CFRP, 0.
** SOURCE_TET=2066
*ELSET, ELSET=ELEM_2219
2219
*ORIENTATION, NAME=ORI_2219, SYSTEM=RECTANGULAR
32.42905568, 15.89560526, -203.18955624, 33.53680892, 16.60233445, -202.66666369
3, 0.
*SHELL SECTION, ELSET=ELEM_2219, COMPOSITE, ORIENTATION=ORI_2219
1.42557347, 3, CFRP, 0.
** SOURCE_TET=2328
*ELSET, ELSET=ELEM_2220
2220
*ORIENTATION, NAME=ORI_2220, SYSTEM=RECTANGULAR
31.24669188, 18.83202095, -203.05571084, 32.30469691, 19.61249985, -202.53467528
3, 0.
*SHELL SECTION, ELSET=ELEM_2220, COMPOSITE, ORIENTATION=ORI_2220
1.42364907, 3, CFRP, 0.
** SOURCE_TET=2168
*ELSET, ELSET=ELEM_2221
2221
*ORIENTATION, NAME=ORI_2221, SYSTEM=RECTANGULAR
28.01845974, 18.99477411, -204.04068135, 29.06110193, 19.81712007, -203.55422029
3, 0.
*SHELL SECTION, ELSET=ELEM_2221, COMPOSITE, ORIENTATION=ORI_2221
1.43813992, 3, CFRP, 0.
** SOURCE_TET=5989
*ELSET, ELSET=ELEM_2222
2222
*ORIENTATION, NAME=ORI_2222, SYSTEM=RECTANGULAR
43.61072293, 13.84855877, -198.79525648, 44.74307848, 14.38363225, -198.13839478
3, 0.
*SHELL SECTION, ELSET=ELEM_2222, COMPOSITE, ORIENTATION=ORI_2222
1.37342787, 3, CFRP, 0.
** SOURCE_TET=5854
*ELSET, ELSET=ELEM_2223
2223
*ORIENTATION, NAME=ORI_2223, SYSTEM=RECTANGULAR
40.72548945, 10.97077337, -200.57255745, 41.90429006, 11.46284757, -199.96568668
3, 0.
*SHELL SECTION, ELSET=ELEM_2223, COMPOSITE, ORIENTATION=ORI_2223
1.38587964, 3, CFRP, 0.
** SOURCE_TET=4028
*ELSET, ELSET=ELEM_2224
2224
*ORIENTATION, NAME=ORI_2224, SYSTEM=RECTANGULAR
49.10809793, 22.02553443, -194.05877529, 50.08133828, 22.71469574, -193.29860432
3, 0.
*SHELL SECTION, ELSET=ELEM_2224, COMPOSITE, ORIENTATION=ORI_2224
1.33874285, 3, CFRP, 0.
** SOURCE_TET=5995
*ELSET, ELSET=ELEM_2225
2225
*ORIENTATION, NAME=ORI_2225, SYSTEM=RECTANGULAR
44.36348156, 23.21533469, -196.38313048, 45.32797741, 23.96037445, -195.66572996
3, 0.
*SHELL SECTION, ELSET=ELEM_2225, COMPOSITE, ORIENTATION=ORI_2225
1.35545146, 3, CFRP, 0.
** SOURCE_TET=2946
*ELSET, ELSET=ELEM_2226
2226
*ORIENTATION, NAME=ORI_2226, SYSTEM=RECTANGULAR
41.97572701, 18.88827461, -198.63307931, 43.02795797, 19.56828707, -197.97703581
3, 0.
*SHELL SECTION, ELSET=ELEM_2226, COMPOSITE, ORIENTATION=ORI_2226
1.37490499, 3, CFRP, 0.
** SOURCE_TET=5589
*ELSET, ELSET=ELEM_2227
2227
*ORIENTATION, NAME=ORI_2227, SYSTEM=RECTANGULAR
52.66934585, 27.16075936, -190.20782330, 53.54546223, 27.87562567, -189.35847870
3, 0.
*SHELL SECTION, ELSET=ELEM_2227, COMPOSITE, ORIENTATION=ORI_2227
1.32748914, 3, CFRP, 0.
** SOURCE_TET=6972
*ELSET, ELSET=ELEM_2228
2228
*ORIENTATION, NAME=ORI_2228, SYSTEM=RECTANGULAR
59.84652831, 18.84401036, -187.52611329, 60.80030455, 19.38870376, -186.63525978
3, 0.
*SHELL SECTION, ELSET=ELEM_2228, COMPOSITE, ORIENTATION=ORI_2228
1.31925690, 3, CFRP, 0.
** SOURCE_TET=6232
*ELSET, ELSET=ELEM_2229
2229
*ORIENTATION, NAME=ORI_2229, SYSTEM=RECTANGULAR
58.35774892, 25.72641841, -186.63515240, 59.22866720, 26.39980906, -185.74743263
3, 0.
*SHELL SECTION, ELSET=ELEM_2229, COMPOSITE, ORIENTATION=ORI_2229
1.31925941, 3, CFRP, 0.
** SOURCE_TET=3923
*ELSET, ELSET=ELEM_2230
2230
*ORIENTATION, NAME=ORI_2230, SYSTEM=RECTANGULAR
49.82792276, 33.85604884, -189.42698027, 50.62732230, 34.64816240, -188.57052450
3, 0.
*SHELL SECTION, ELSET=ELEM_2230, COMPOSITE, ORIENTATION=ORI_2230
1.32572651, 3, CFRP, 0.
** SOURCE_TET=6204
*ELSET, ELSET=ELEM_2231
2231
*ORIENTATION, NAME=ORI_2231, SYSTEM=RECTANGULAR
44.19696507, 34.66625254, -192.51618072, 44.94810475, 35.55233504, -191.70955379
3, 0.
*SHELL SECTION, ELSET=ELEM_2231, COMPOSITE, ORIENTATION=ORI_2231
1.33444059, 3, CFRP, 0.
** SOURCE_TET=6135
*ELSET, ELSET=ELEM_2232
2232
*ORIENTATION, NAME=ORI_2232, SYSTEM=RECTANGULAR
42.26689879, 29.18823043, -195.56684754, 43.15185674, 30.02175726, -194.84429481
3, 0.
*SHELL SECTION, ELSET=ELEM_2232, COMPOSITE, ORIENTATION=ORI_2232
1.35194826, 3, CFRP, 0.
** SOURCE_TET=1919
*ELSET, ELSET=ELEM_2233
2233
*ORIENTATION, NAME=ORI_2233, SYSTEM=RECTANGULAR
35.92372239, 15.62341058, -201.92562794, 37.06585086, 16.23953228, -201.36354556
3, 0.
*SHELL SECTION, ELSET=ELEM_2233, COMPOSITE, ORIENTATION=ORI_2233
1.40626597, 3, CFRP, 0.
** SOURCE_TET=2520
*ELSET, ELSET=ELEM_2234
2234
*ORIENTATION, NAME=ORI_2234, SYSTEM=RECTANGULAR
34.53229162, 9.89497158, -203.28148433, 35.75243452, 10.38817879, -202.76379914
3, 0.
*SHELL SECTION, ELSET=ELEM_2234, COMPOSITE, ORIENTATION=ORI_2234
1.42150950, 3, CFRP, 0.
** SOURCE_TET=3012
*ELSET, ELSET=ELEM_2235
2235
*ORIENTATION, NAME=ORI_2235, SYSTEM=RECTANGULAR
36.99653013, 12.24392401, -202.01973586, 38.17870475, 12.77829268, -201.45678534
3, 0.
*SHELL SECTION, ELSET=ELEM_2235, COMPOSITE, ORIENTATION=ORI_2235
1.40696442, 3, CFRP, 0.
** SOURCE_TET=4409
*ELSET, ELSET=ELEM_2236
2236
*ORIENTATION, NAME=ORI_2236, SYSTEM=RECTANGULAR
38.02245504, 19.38850558, -200.32471568, 39.07097152, 20.10744682, -199.70525085
3, 0.
*SHELL SECTION, ELSET=ELEM_2236, COMPOSITE, ORIENTATION=ORI_2236
1.38669813, 3, CFRP, 0.
** SOURCE_TET=4323
*ELSET, ELSET=ELEM_2237
2237
*ORIENTATION, NAME=ORI_2237, SYSTEM=RECTANGULAR
35.89417197, 22.61452745, -200.47652343, 36.89459629, 23.40594734, -199.86594523
3, 0.
*SHELL SECTION, ELSET=ELEM_2237, COMPOSITE, ORIENTATION=ORI_2237
1.38779569, 3, CFRP, 0.
** SOURCE_TET=1940
*ELSET, ELSET=ELEM_2238
2238
*ORIENTATION, NAME=ORI_2238, SYSTEM=RECTANGULAR
32.60351083, 21.74676349, -201.95596247, 33.61347784, 22.55894675, -201.38998987
3, 0.
*SHELL SECTION, ELSET=ELEM_2238, COMPOSITE, ORIENTATION=ORI_2238
1.40081680, 3, CFRP, 0.
** SOURCE_TET=5819
*ELSET, ELSET=ELEM_2239
2239
*ORIENTATION, NAME=ORI_2239, SYSTEM=RECTANGULAR
-74.95819924, 38.62330193, -162.75611341, -75.75924452, 38.63359440, -161.59068622
3, 0.
*SHELL SECTION, ELSET=ELEM_2239, COMPOSITE, ORIENTATION=ORI_2239
1.28295553, 3, CFRP, 0.
** SOURCE_TET=4696
*ELSET, ELSET=ELEM_2240
2240
*ORIENTATION, NAME=ORI_2240, SYSTEM=RECTANGULAR
-73.72985669, 31.77188055, -168.90392257, -74.59875429, 31.74907329, -167.78835241
3, 0.
*SHELL SECTION, ELSET=ELEM_2240, COMPOSITE, ORIENTATION=ORI_2240
1.28705633, 3, CFRP, 0.
** SOURCE_TET=6594
*ELSET, ELSET=ELEM_2241
2241
*ORIENTATION, NAME=ORI_2241, SYSTEM=RECTANGULAR
-67.88274254, 32.84930356, -175.21377811, -68.82160829, 32.94251774, -174.16028761
3, 0.
*SHELL SECTION, ELSET=ELEM_2241, COMPOSITE, ORIENTATION=ORI_2241
1.29558587, 3, CFRP, 0.
** SOURCE_TET=3699
*ELSET, ELSET=ELEM_2242
2242
*ORIENTATION, NAME=ORI_2242, SYSTEM=RECTANGULAR
-19.72894205, -37.52585414, -200.43770625, -20.16940138, -38.73077671, -199.84259519
3, 0.
*SHELL SECTION, ELSET=ELEM_2242, COMPOSITE, ORIENTATION=ORI_2242
1.39006603, 3, CFRP, 0.
** SOURCE_TET=4863
*ELSET, ELSET=ELEM_2243
2243
*ORIENTATION, NAME=ORI_2243, SYSTEM=RECTANGULAR
47.36787808, -66.48976056, -166.84661958, 48.10384086, -66.91267713, -165.71546955
3, 0.
*SHELL SECTION, ELSET=ELEM_2243, COMPOSITE, ORIENTATION=ORI_2243
1.28714526, 3, CFRP, 0.
** SOURCE_TET=4990
*ELSET, ELSET=ELEM_2244
2244
*ORIENTATION, NAME=ORI_2244, SYSTEM=RECTANGULAR
40.21659914, -69.09847897, -169.39206483, 40.92392452, -69.59355110, -168.27197805
3, 0.
*SHELL SECTION, ELSET=ELEM_2244, COMPOSITE, ORIENTATION=ORI_2244
1.28913748, 3, CFRP, 0.
** SOURCE_TET=6370
*ELSET, ELSET=ELEM_2245
2245
*ORIENTATION, NAME=ORI_2245, SYSTEM=RECTANGULAR
37.72448965, -63.95849511, -176.52995155, 38.45068326, -64.59764528, -175.49838482
3, 0.
*SHELL SECTION, ELSET=ELEM_2245, COMPOSITE, ORIENTATION=ORI_2245
1.29914093, 3, CFRP, 0.
** SOURCE_TET=4120
*ELSET, ELSET=ELEM_2246
2246
*ORIENTATION, NAME=ORI_2246, SYSTEM=RECTANGULAR
63.83708077, -58.06848312, -159.26435366, 64.57948082, -58.23045010, -158.07162198
3, 0.
*SHELL SECTION, ELSET=ELEM_2246, COMPOSITE, ORIENTATION=ORI_2246
1.27988458, 3, CFRP, 0.
** SOURCE_TET=6115
*ELSET, ELSET=ELEM_2247
2247
*ORIENTATION, NAME=ORI_2247, SYSTEM=RECTANGULAR
50.95635413, -70.12929828, -158.83429218, 51.65640807, -70.44876248, -157.64775642
3, 0.
*SHELL SECTION, ELSET=ELEM_2247, COMPOSITE, ORIENTATION=ORI_2247
1.27945113, 3, CFRP, 0.
** SOURCE_TET=6419
*ELSET, ELSET=ELEM_2248
2248
*ORIENTATION, NAME=ORI_2248, SYSTEM=RECTANGULAR
59.35453936, -66.06926728, -154.78638224, 60.06229141, -66.24634643, -153.57488317
3, 0.
*SHELL SECTION, ELSET=ELEM_2248, COMPOSITE, ORIENTATION=ORI_2248
1.27758539, 3, CFRP, 0.
** SOURCE_TET=5362
*ELSET, ELSET=ELEM_2249
2249
*ORIENTATION, NAME=ORI_2249, SYSTEM=RECTANGULAR
71.32042304, -53.79944430, -153.53192496, 72.03295421, -53.85482189, -152.31158376
3, 0.
*SHELL SECTION, ELSET=ELEM_2249, COMPOSITE, ORIENTATION=ORI_2249
1.27703476, 3, CFRP, 0.
** SOURCE_TET=5044
*ELSET, ELSET=ELEM_2250
2250
*ORIENTATION, NAME=ORI_2250, SYSTEM=RECTANGULAR
73.52551819, -39.01527725, -164.32450523, 74.33024656, -39.05202580, -163.16215340
3, 0.
*SHELL SECTION, ELSET=ELEM_2250, COMPOSITE, ORIENTATION=ORI_2250
1.28521955, 3, CFRP, 0.
** SOURCE_TET=5315
*ELSET, ELSET=ELEM_2251
2251
*ORIENTATION, NAME=ORI_2251, SYSTEM=RECTANGULAR
75.93126503, -44.55261201, -156.04363091, 76.67978029, -44.52653750, -154.84402888
3, 0.
*SHELL SECTION, ELSET=ELEM_2251, COMPOSITE, ORIENTATION=ORI_2251
1.27736151, 3, CFRP, 0.
** SOURCE_TET=6325
*ELSET, ELSET=ELEM_2252
2252
*ORIENTATION, NAME=ORI_2252, SYSTEM=RECTANGULAR
66.87217378, -41.09535245, -171.29283382, 67.74827660, -41.24349575, -170.19260774
3, 0.
*SHELL SECTION, ELSET=ELEM_2252, COMPOSITE, ORIENTATION=ORI_2252
1.29051590, 3, CFRP, 0.
** SOURCE_TET=4477
*ELSET, ELSET=ELEM_2253
2253
*ORIENTATION, NAME=ORI_2253, SYSTEM=RECTANGULAR
32.61205500, -79.75104576, -159.61843759, 33.22472425, -80.23860432, -158.44076062
3, 0.
*SHELL SECTION, ELSET=ELEM_2253, COMPOSITE, ORIENTATION=ORI_2253
1.28164375, 3, CFRP, 0.
** SOURCE_TET=4901
*ELSET, ELSET=ELEM_2254
2254
*ORIENTATION, NAME=ORI_2254, SYSTEM=RECTANGULAR
33.41016068, -74.91026231, -166.43781109, 34.03785994, -75.44170184, -165.28734786
3, 0.
*SHELL SECTION, ELSET=ELEM_2254, COMPOSITE, ORIENTATION=ORI_2254
1.28602159, 3, CFRP, 0.
** SOURCE_TET=6082
*ELSET, ELSET=ELEM_2255
2255
*ORIENTATION, NAME=ORI_2255, SYSTEM=RECTANGULAR
39.71797646, -80.49715410, -153.08669516, 40.33297042, -80.85239259, -151.86375279
3, 0.
*SHELL SECTION, ELSET=ELEM_2255, COMPOSITE, ORIENTATION=ORI_2255
1.27574372, 3, CFRP, 0.
** SOURCE_TET=7028
*ELSET, ELSET=ELEM_2256
2256
*ORIENTATION, NAME=ORI_2256, SYSTEM=RECTANGULAR
47.27680250, -76.46926977, -152.85558278, 47.93088701, -76.75123812, -151.63383514
3, 0.
*SHELL SECTION, ELSET=ELEM_2256, COMPOSITE, ORIENTATION=ORI_2256
1.27650321, 3, CFRP, 0.
** SOURCE_TET=924
*ELSET, ELSET=ELEM_2257
2257
*ORIENTATION, NAME=ORI_2257, SYSTEM=RECTANGULAR
12.82095959, -25.49639672, -205.80179306, 13.54735903, -26.63280182, -205.37643757
3, 0.
*SHELL SECTION, ELSET=ELEM_2257, COMPOSITE, ORIENTATION=ORI_2257
1.48317766, 3, CFRP, 0.
** SOURCE_TET=490
*ELSET, ELSET=ELEM_2258
2258
*ORIENTATION, NAME=ORI_2258, SYSTEM=RECTANGULAR
12.59471792, -19.56318902, -207.23026096, 13.38345658, -20.68691853, -206.89096266
3, 0.
*SHELL SECTION, ELSET=ELEM_2258, COMPOSITE, ORIENTATION=ORI_2258
1.55951643, 3, CFRP, 0.
** SOURCE_TET=396
*ELSET, ELSET=ELEM_2259
2259
*ORIENTATION, NAME=ORI_2259, SYSTEM=RECTANGULAR
14.66005232, -20.26696215, -206.80278553, 15.52896987, -21.32142034, -206.43795649
3, 0.
*SHELL SECTION, ELSET=ELEM_2259, COMPOSITE, ORIENTATION=ORI_2259
1.52936387, 3, CFRP, 0.
** SOURCE_TET=2014
*ELSET, ELSET=ELEM_2260
2260
*ORIENTATION, NAME=ORI_2260, SYSTEM=RECTANGULAR
11.01387277, -15.49416822, -208.15971259, 11.81485633, -16.62543559, -207.87924959
3, 0.
*SHELL SECTION, ELSET=ELEM_2260, COMPOSITE, ORIENTATION=ORI_2260
1.64537787, 3, CFRP, 0.
** SOURCE_TET=656
*ELSET, ELSET=ELEM_2261
2261
*ORIENTATION, NAME=ORI_2261, SYSTEM=RECTANGULAR
12.37138316, -16.97144002, -207.74898186, 13.27096682, -18.01903889, -207.44355451
3, 0.
*SHELL SECTION, ELSET=ELEM_2261, COMPOSITE, ORIENTATION=ORI_2261
1.59870768, 3, CFRP, 0.
** SOURCE_TET=3893
*ELSET, ELSET=ELEM_2262
2262
*ORIENTATION, NAME=ORI_2262, SYSTEM=RECTANGULAR
50.90781601, 71.83944159, -155.99404068, 50.93143063, 72.55050025, -154.77181406
3, 0.
*SHELL SECTION, ELSET=ELEM_2262, COMPOSITE, ORIENTATION=ORI_2262
1.27753007, 3, CFRP, 0.
** SOURCE_TET=6859
*ELSET, ELSET=ELEM_2263
2263
*ORIENTATION, NAME=ORI_2263, SYSTEM=RECTANGULAR
41.42695601, 75.98794448, -159.16945537, 41.38101377, 76.74557449, -157.97618840
3, 0.
*SHELL SECTION, ELSET=ELEM_2263, COMPOSITE, ORIENTATION=ORI_2263
1.27885139, 3, CFRP, 0.
** SOURCE_TET=3802
*ELSET, ELSET=ELEM_2264
2264
*ORIENTATION, NAME=ORI_2264, SYSTEM=RECTANGULAR
3.98890117, -45.82304700, -198.67447764, 4.29715632, -47.02758390, -198.00063076
3, 0.
*SHELL SECTION, ELSET=ELEM_2264, COMPOSITE, ORIENTATION=ORI_2264
1.37181282, 3, CFRP, 0.
** SOURCE_TET=5510
*ELSET, ELSET=ELEM_2265
2265
*ORIENTATION, NAME=ORI_2265, SYSTEM=RECTANGULAR
-0.13306581, -44.84562640, -199.29367553, 0.01215803, -46.09457026, -198.64633539
3, 0.
*SHELL SECTION, ELSET=ELEM_2265, COMPOSITE, ORIENTATION=ORI_2265
1.37721109, 3, CFRP, 0.
** SOURCE_TET=7017
*ELSET, ELSET=ELEM_2266
2266
*ORIENTATION, NAME=ORI_2266, SYSTEM=RECTANGULAR
74.41586644, -57.37856831, -142.48842621, 75.01540040, -57.29006172, -141.21064469
3, 0.
*SHELL SECTION, ELSET=ELEM_2266, COMPOSITE, ORIENTATION=ORI_2266
1.27075410, 3, CFRP, 0.
** SOURCE_TET=4354
*ELSET, ELSET=ELEM_2267
2267
*ORIENTATION, NAME=ORI_2267, SYSTEM=RECTANGULAR
-31.24922831, 28.42916469, -200.52739973, -32.30272372, 29.14805563, -199.91638154
3, 0.
*SHELL SECTION, ELSET=ELEM_2267, COMPOSITE, ORIENTATION=ORI_2267
1.38797832, 3, CFRP, 0.
** SOURCE_TET=3692
*ELSET, ELSET=ELEM_2268
2268
*ORIENTATION, NAME=ORI_2268, SYSTEM=RECTANGULAR
-29.35202623, -23.15720512, -202.64444195, -30.28454351, -24.07726133, -202.11161167
3, 0.
*SHELL SECTION, ELSET=ELEM_2268, COMPOSITE, ORIENTATION=ORI_2268
1.41319835, 3, CFRP, 0.
** SOURCE_TET=2989
*ELSET, ELSET=ELEM_2269
2269
*ORIENTATION, NAME=ORI_2269, SYSTEM=RECTANGULAR
-6.90502159, 40.84843446, -200.90861387, -7.25923529, 42.08239367, -200.31542139
3, 0.
*SHELL SECTION, ELSET=ELEM_2269, COMPOSITE, ORIENTATION=ORI_2269
1.38747585, 3, CFRP, 0.
** SOURCE_TET=3202
*ELSET, ELSET=ELEM_2270
2270
*ORIENTATION, NAME=ORI_2270, SYSTEM=RECTANGULAR
0.12400148, 39.14764855, -201.92988595, 0.00745550, 40.43875096, -201.36466777
3, 0.
*SHELL SECTION, ELSET=ELEM_2270, COMPOSITE, ORIENTATION=ORI_2270
1.40028834, 3, CFRP, 0.
** SOURCE_TET=7316
*ELSET, ELSET=ELEM_2271
2271
*ORIENTATION, NAME=ORI_2271, SYSTEM=RECTANGULAR
-2.25269817, 41.70269550, -200.77431638, -2.50187314, 42.96260895, -200.18226070
3, 0.
*SHELL SECTION, ELSET=ELEM_2271, COMPOSITE, ORIENTATION=ORI_2271
1.38627946, 3, CFRP, 0.
** SOURCE_TET=2794
*ELSET, ELSET=ELEM_2272
2272
*ORIENTATION, NAME=ORI_2272, SYSTEM=RECTANGULAR
-16.74865291, 39.83160987, -200.04061462, -17.42233606, 40.91864324, -199.43686843
3, 0.
*SHELL SECTION, ELSET=ELEM_2272, COMPOSITE, ORIENTATION=ORI_2272
1.38392103, 3, CFRP, 0.
** SOURCE_TET=2453
*ELSET, ELSET=ELEM_2273
2273
*ORIENTATION, NAME=ORI_2273, SYSTEM=RECTANGULAR
-15.65999837, 36.34971269, -201.71866403, -16.27310943, 37.48378215, -201.13730246
3, 0.
*SHELL SECTION, ELSET=ELEM_2273, COMPOSITE, ORIENTATION=ORI_2273
1.40357971, 3, CFRP, 0.
** SOURCE_TET=4134
*ELSET, ELSET=ELEM_2274
2274
*ORIENTATION, NAME=ORI_2274, SYSTEM=RECTANGULAR
-17.24547978, -30.26154294, -203.60307373, -17.80354381, -31.46331682, -203.10880246
3, 0.
*SHELL SECTION, ELSET=ELEM_2274, COMPOSITE, ORIENTATION=ORI_2274
1.43209660, 3, CFRP, 0.
** SOURCE_TET=3350
*ELSET, ELSET=ELEM_2275
2275
*ORIENTATION, NAME=ORI_2275, SYSTEM=RECTANGULAR
-20.09922904, -33.78919515, -201.83149207, -20.60199708, -34.98172882, -201.26132740
3, 0.
*SHELL SECTION, ELSET=ELEM_2275, COMPOSITE, ORIENTATION=ORI_2275
1.40276849, 3, CFRP, 0.
** SOURCE_TET=2006
*ELSET, ELSET=ELEM_2276
2276
*ORIENTATION, NAME=ORI_2276, SYSTEM=RECTANGULAR
16.95824246, 22.55954867, -205.89367189, 17.69317558, 23.69417068, -205.47833326
3, 0.
*SHELL SECTION, ELSET=ELEM_2276, COMPOSITE, ORIENTATION=ORI_2276
1.48133326, 3, CFRP, 0.
** SOURCE_TET=1054
*ELSET, ELSET=ELEM_2277
2277
*ORIENTATION, NAME=ORI_2277, SYSTEM=RECTANGULAR
14.41329133, 22.34992139, -206.38665868, 15.06791538, 23.54109650, -205.99605759
3, 0.
*SHELL SECTION, ELSET=ELEM_2277, COMPOSITE, ORIENTATION=ORI_2277
1.51788974, 3, CFRP, 0.
** SOURCE_TET=1173
*ELSET, ELSET=ELEM_2278
2278
*ORIENTATION, NAME=ORI_2278, SYSTEM=RECTANGULAR
12.69942764, 23.81945465, -206.26714398, 13.27431456, 25.04971106, -205.87220829
3, 0.
*SHELL SECTION, ELSET=ELEM_2278, COMPOSITE, ORIENTATION=ORI_2278
1.51407266, 3, CFRP, 0.
** SOURCE_TET=1528
*ELSET, ELSET=ELEM_2279
2279
*ORIENTATION, NAME=ORI_2279, SYSTEM=RECTANGULAR
4.15652185, 25.33967079, -206.61106072, 4.28895911, 26.69713383, -206.23722324
3, 0.
*SHELL SECTION, ELSET=ELEM_2279, COMPOSITE, ORIENTATION=ORI_2279
1.53049254, 3, CFRP, 0.
** SOURCE_TET=2553
*ELSET, ELSET=ELEM_2280
2280
*ORIENTATION, NAME=ORI_2280, SYSTEM=RECTANGULAR
4.43481590, 28.06715957, -205.83902628, 4.56028588, 29.41441391, -205.42773194
3, 0.
*SHELL SECTION, ELSET=ELEM_2280, COMPOSITE, ORIENTATION=ORI_2280
1.48463511, 3, CFRP, 0.
** SOURCE_TET=1240
*ELSET, ELSET=ELEM_2281
2281
*ORIENTATION, NAME=ORI_2281, SYSTEM=RECTANGULAR
5.73761890, 23.65609537, -206.96939205, 5.95373136, 25.00663187, -206.60974422
3, 0.
*SHELL SECTION, ELSET=ELEM_2281, COMPOSITE, ORIENTATION=ORI_2281
1.54542494, 3, CFRP, 0.
** SOURCE_TET=790
*ELSET, ELSET=ELEM_2282
2282
*ORIENTATION, NAME=ORI_2282, SYSTEM=RECTANGULAR
7.99835128, 24.34743239, -206.63154165, 8.33616607, 25.67049079, -206.26357745
3, 0.
*SHELL SECTION, ELSET=ELEM_2282, COMPOSITE, ORIENTATION=ORI_2282
1.52211082, 3, CFRP, 0.
** SOURCE_TET=1773
*ELSET, ELSET=ELEM_2283
2283
*ORIENTATION, NAME=ORI_2283, SYSTEM=RECTANGULAR
7.46126268, 20.25452971, -207.62142048, 7.86299183, 21.57426920, -207.31013062
3, 0.
*SHELL SECTION, ELSET=ELEM_2283, COMPOSITE, ORIENTATION=ORI_2283
1.59144664, 3, CFRP, 0.
** SOURCE_TET=1939
*ELSET, ELSET=ELEM_2284
2284
*ORIENTATION, NAME=ORI_2284, SYSTEM=RECTANGULAR
8.16850621, 18.64285825, -207.89197496, 8.70135250, 19.91751564, -207.58977741
3, 0.
*SHELL SECTION, ELSET=ELEM_2284, COMPOSITE, ORIENTATION=ORI_2284
1.61240041, 3, CFRP, 0.
** SOURCE_TET=2846
*ELSET, ELSET=ELEM_2285
2285
*ORIENTATION, NAME=ORI_2285, SYSTEM=RECTANGULAR
11.38784480, 20.39673747, -207.21744094, 12.00146243, 21.62407605, -206.87522256
3, 0.
*SHELL SECTION, ELSET=ELEM_2285, COMPOSITE, ORIENTATION=ORI_2285
1.55268025, 3, CFRP, 0.
** SOURCE_TET=2378
*ELSET, ELSET=ELEM_2286
2286
*ORIENTATION, NAME=ORI_2286, SYSTEM=RECTANGULAR
10.03830159, 18.76207192, -207.69350192, 10.64148677, 20.00321418, -207.38409357
3, 0.
*SHELL SECTION, ELSET=ELEM_2286, COMPOSITE, ORIENTATION=ORI_2286
1.59780920, 3, CFRP, 0.
** SOURCE_TET=935
*ELSET, ELSET=ELEM_2287
2287
*ORIENTATION, NAME=ORI_2287, SYSTEM=RECTANGULAR
8.83040748, 22.50246459, -207.01152054, 9.31081404, 23.78355944, -206.65374193
3, 0.
*SHELL SECTION, ELSET=ELEM_2287, COMPOSITE, ORIENTATION=ORI_2287
1.54414630, 3, CFRP, 0.
** SOURCE_TET=2036
*ELSET, ELSET=ELEM_2288
2288
*ORIENTATION, NAME=ORI_2288, SYSTEM=RECTANGULAR
10.91040254, 22.47509704, -206.80290351, 11.46139793, 23.72618614, -206.44071553
3, 0.
*SHELL SECTION, ELSET=ELEM_2288, COMPOSITE, ORIENTATION=ORI_2288
1.53458023, 3, CFRP, 0.
** SOURCE_TET=6820
*ELSET, ELSET=ELEM_2289
2289
*ORIENTATION, NAME=ORI_2289, SYSTEM=RECTANGULAR
64.05347212, -18.18738911, -184.26199037, 65.11610097, -18.20097687, -183.32891197
3, 0.
*SHELL SECTION, ELSET=ELEM_2289, COMPOSITE, ORIENTATION=ORI_2289
1.31291616, 3, CFRP, 0.
** SOURCE_TET=1034
*ELSET, ELSET=ELEM_2290
2290
*ORIENTATION, NAME=ORI_2290, SYSTEM=RECTANGULAR
-21.66472070, 14.07261929, -206.58650997, -22.86658445, 14.71474172, -206.20808914
3, 0.
*SHELL SECTION, ELSET=ELEM_2290, COMPOSITE, ORIENTATION=ORI_2290
1.52273846, 3, CFRP, 0.
** SOURCE_TET=1913
*ELSET, ELSET=ELEM_2291
2291
*ORIENTATION, NAME=ORI_2291, SYSTEM=RECTANGULAR
-23.52994418, 12.60473905, -206.34546799, -24.76549484, 13.16241614, -205.94246570
3, 0.
*SHELL SECTION, ELSET=ELEM_2291, COMPOSITE, ORIENTATION=ORI_2291
1.51405072, 3, CFRP, 0.
** SOURCE_TET=6916
*ELSET, ELSET=ELEM_2292
2292
*ORIENTATION, NAME=ORI_2292, SYSTEM=RECTANGULAR
-80.71704041, 36.85400509, -155.05404190, -81.44101913, 36.73111888, -153.84542542
3, 0.
*SHELL SECTION, ELSET=ELEM_2292, COMPOSITE, ORIENTATION=ORI_2292
1.27661133, 3, CFRP, 0.
** SOURCE_TET=5991
*ELSET, ELSET=ELEM_2293
2293
*ORIENTATION, NAME=ORI_2293, SYSTEM=RECTANGULAR
-82.98875946, 19.15639938, -161.15783911, -83.74060071, 18.92497147, -159.98260473
3, 0.
*SHELL SECTION, ELSET=ELEM_2293, COMPOSITE, ORIENTATION=ORI_2293
1.28025830, 3, CFRP, 0.
** SOURCE_TET=6080
*ELSET, ELSET=ELEM_2294
2294
*ORIENTATION, NAME=ORI_2294, SYSTEM=RECTANGULAR
-85.32612484, 25.94698861, -153.83900194, -85.99394528, 25.73450139, -152.61064326
3, 0.
*SHELL SECTION, ELSET=ELEM_2294, COMPOSITE, ORIENTATION=ORI_2294
1.27609742, 3, CFRP, 0.
** SOURCE_TET=5675
*ELSET, ELSET=ELEM_2295
2295
*ORIENTATION, NAME=ORI_2295, SYSTEM=RECTANGULAR
-77.16821382, 23.16613196, -168.48960582, -78.01663883, 23.06148469, -167.36300742
3, 0.
*SHELL SECTION, ELSET=ELEM_2295, COMPOSITE, ORIENTATION=ORI_2295
1.28672874, 3, CFRP, 0.
** SOURCE_TET=3035
*ELSET, ELSET=ELEM_2296
2296
*ORIENTATION, NAME=ORI_2296, SYSTEM=RECTANGULAR
35.64183356, -7.16516231, -203.11491348, 36.94754200, -7.29860351, -202.58830270
3, 0.
*SHELL SECTION, ELSET=ELEM_2296, COMPOSITE, ORIENTATION=ORI_2296
1.42421854, 3, CFRP, 0.
** SOURCE_TET=1315
*ELSET, ELSET=ELEM_2297
2297
*ORIENTATION, NAME=ORI_2297, SYSTEM=RECTANGULAR
34.85061558, 7.25485231, -203.40914883, 36.11250911, 7.62862229, -202.89153826
3, 0.
*SHELL SECTION, ELSET=ELEM_2297, COMPOSITE, ORIENTATION=ORI_2297
1.42886317, 3, CFRP, 0.
** SOURCE_TET=4158
*ELSET, ELSET=ELEM_2298
2298
*ORIENTATION, NAME=ORI_2298, SYSTEM=RECTANGULAR
-44.08610493, -1.25419567, -199.60183015, -45.33150011, -1.48776765, -198.97378957
3, 0.
*SHELL SECTION, ELSET=ELEM_2298, COMPOSITE, ORIENTATION=ORI_2298
1.38080072, 3, CFRP, 0.
** SOURCE_TET=5027
*ELSET, ELSET=ELEM_2299
2299
*ORIENTATION, NAME=ORI_2299, SYSTEM=RECTANGULAR
69.91860655, 61.76848795, -143.47901186, 69.93987293, 62.38452473, -142.20620142
3, 0.
*SHELL SECTION, ELSET=ELEM_2299, COMPOSITE, ORIENTATION=ORI_2299
1.27091300, 3, CFRP, 0.
** SOURCE_TET=7004
*ELSET, ELSET=ELEM_2300
2300
*ORIENTATION, NAME=ORI_2300, SYSTEM=RECTANGULAR
76.50671023, 58.18003182, -135.40898010, 76.49425685, 58.76038004, -134.11939069
3, 0.
*SHELL SECTION, ELSET=ELEM_2300, COMPOSITE, ORIENTATION=ORI_2300
1.26895833, 3, CFRP, 0.
** SOURCE_TET=6621
*ELSET, ELSET=ELEM_2301
2301
*ORIENTATION, NAME=ORI_2301, SYSTEM=RECTANGULAR
-89.71463795, 24.80917698, -144.45506491, -90.26702249, 24.49940725, -143.19058319
3, 0.
*SHELL SECTION, ELSET=ELEM_2301, COMPOSITE, ORIENTATION=ORI_2301
1.27098787, 3, CFRP, 0.
** SOURCE_TET=6822
*ELSET, ELSET=ELEM_2302
2302
*ORIENTATION, NAME=ORI_2302, SYSTEM=RECTANGULAR
-88.67756780, -29.21187797, -144.03698779, -88.94370354, -29.76059750, -142.76102594
3, 0.
*SHELL SECTION, ELSET=ELEM_2302, COMPOSITE, ORIENTATION=ORI_2302
1.27094221, 3, CFRP, 0.
** SOURCE_TET=6112
*ELSET, ELSET=ELEM_2303
2303
*ORIENTATION, NAME=ORI_2303, SYSTEM=RECTANGULAR
-75.37638951, -45.55526445, -156.05416777, -75.69465065, -46.20941082, -154.84140136
3, 0.
*SHELL SECTION, ELSET=ELEM_2303, COMPOSITE, ORIENTATION=ORI_2303
1.27884829, 3, CFRP, 0.
** SOURCE_TET=5822
*ELSET, ELSET=ELEM_2304
2304
*ORIENTATION, NAME=ORI_2304, SYSTEM=RECTANGULAR
-77.74648205, -36.31547816, -160.20640976, -78.19486068, -36.93978133, -159.01931156
3, 0.
*SHELL SECTION, ELSET=ELEM_2304, COMPOSITE, ORIENTATION=ORI_2304
1.27951181, 3, CFRP, 0.
** SOURCE_TET=5875
*ELSET, ELSET=ELEM_2305
2305
*ORIENTATION, NAME=ORI_2305, SYSTEM=RECTANGULAR
-83.79241874, -29.14488904, -154.82047654, -84.23665791, -29.73135674, -153.61270702
3, 0.
*SHELL SECTION, ELSET=ELEM_2305, COMPOSITE, ORIENTATION=ORI_2305
1.27682424, 3, CFRP, 0.
** SOURCE_TET=3384
*ELSET, ELSET=ELEM_2306
2306
*ORIENTATION, NAME=ORI_2306, SYSTEM=RECTANGULAR
-66.28201731, -64.28583315, -146.33075089, -66.32261251, -64.92088799, -145.06779508
3, 0.
*SHELL SECTION, ELSET=ELEM_2306, COMPOSITE, ORIENTATION=ORI_2306
1.27290654, 3, CFRP, 0.
** SOURCE_TET=6600
*ELSET, ELSET=ELEM_2307
2307
*ORIENTATION, NAME=ORI_2307, SYSTEM=RECTANGULAR
-63.13107445, -60.77449691, -157.04228653, -63.30246820, -61.49548785, -155.83779650
3, 0.
*SHELL SECTION, ELSET=ELEM_2307, COMPOSITE, ORIENTATION=ORI_2307
1.27702451, 3, CFRP, 0.
** SOURCE_TET=6575
*ELSET, ELSET=ELEM_2308
2308
*ORIENTATION, NAME=ORI_2308, SYSTEM=RECTANGULAR
-67.48929704, -52.12342474, -161.18984451, -67.82322642, -52.83783330, -160.01591454
3, 0.
*SHELL SECTION, ELSET=ELEM_2308, COMPOSITE, ORIENTATION=ORI_2308
1.28166592, 3, CFRP, 0.
** SOURCE_TET=6996
*ELSET, ELSET=ELEM_2309
2309
*ORIENTATION, NAME=ORI_2309, SYSTEM=RECTANGULAR
-60.88936490, -72.05613756, -141.25939747, -60.84206328, -72.66441548, -139.98356028
3, 0.
*SHELL SECTION, ELSET=ELEM_2309, COMPOSITE, ORIENTATION=ORI_2309
1.27139115, 3, CFRP, 0.
** SOURCE_TET=5710
*ELSET, ELSET=ELEM_2310
2310
*ORIENTATION, NAME=ORI_2310, SYSTEM=RECTANGULAR
-54.22784008, -64.81342289, -162.36086325, -54.40433951, -65.58055735, -161.18597914
3, 0.
*SHELL SECTION, ELSET=ELEM_2310, COMPOSITE, ORIENTATION=ORI_2310
1.28308022, 3, CFRP, 0.
** SOURCE_TET=6024
*ELSET, ELSET=ELEM_2311
2311
*ORIENTATION, NAME=ORI_2311, SYSTEM=RECTANGULAR
-48.98501722, -71.88660292, -158.00233476, -49.02443621, -72.65824262, -156.81784402
3, 0.
*SHELL SECTION, ELSET=ELEM_2311, COMPOSITE, ORIENTATION=ORI_2311
1.27832139, 3, CFRP, 0.
** SOURCE_TET=7042
*ELSET, ELSET=ELEM_2312
2312
*ORIENTATION, NAME=ORI_2312, SYSTEM=RECTANGULAR
-52.49676305, -75.63629507, -147.61207911, -52.42538375, -76.28738014, -146.35868642
3, 0.
*SHELL SECTION, ELSET=ELEM_2312, COMPOSITE, ORIENTATION=ORI_2312
1.27388096, 3, CFRP, 0.
** SOURCE_TET=5538
*ELSET, ELSET=ELEM_2313
2313
*ORIENTATION, NAME=ORI_2313, SYSTEM=RECTANGULAR
6.87339632, -42.43694234, -200.19881523, 7.24504295, -43.65601962, -199.58584756
3, 0.
*SHELL SECTION, ELSET=ELEM_2313, COMPOSITE, ORIENTATION=ORI_2313
1.38186622, 3, CFRP, 0.
** SOURCE_TET=4592
*ELSET, ELSET=ELEM_2314
2314
*ORIENTATION, NAME=ORI_2314, SYSTEM=RECTANGULAR
11.61731634, -42.42706176, -199.66809044, 12.08840761, -43.60658554, -199.04616063
3, 0.
*SHELL SECTION, ELSET=ELEM_2314, COMPOSITE, ORIENTATION=ORI_2314
1.37841868, 3, CFRP, 0.
** SOURCE_TET=2069
*ELSET, ELSET=ELEM_2315
2315
*ORIENTATION, NAME=ORI_2315, SYSTEM=RECTANGULAR
-16.62015928, 15.05954233, -207.41801576, -17.65241126, 15.97055203, -207.09472460
3, 0.
*SHELL SECTION, ELSET=ELEM_2315, COMPOSITE, ORIENTATION=ORI_2315
1.56800056, 3, CFRP, 0.
** SOURCE_TET=2266
*ELSET, ELSET=ELEM_2316
2316
*ORIENTATION, NAME=ORI_2316, SYSTEM=RECTANGULAR
-20.17248063, 12.27908891, -207.15244319, -21.39412333, 12.90566913, -206.81334683
3, 0.
*SHELL SECTION, ELSET=ELEM_2316, COMPOSITE, ORIENTATION=ORI_2316
1.54637313, 3, CFRP, 0.
** SOURCE_TET=6920
*ELSET, ELSET=ELEM_2317
2317
*ORIENTATION, NAME=ORI_2317, SYSTEM=RECTANGULAR
65.32836973, 16.90058575, -183.44342892, 66.24946987, 17.41202126, -182.50002642
3, 0.
*SHELL SECTION, ELSET=ELEM_2317, COMPOSITE, ORIENTATION=ORI_2317
1.31149805, 3, CFRP, 0.
** SOURCE_TET=6995
*ELSET, ELSET=ELEM_2318
2318
*ORIENTATION, NAME=ORI_2318, SYSTEM=RECTANGULAR
62.85093052, 30.72285440, -181.00845482, 63.60219542, 31.39662480, -180.01768013
3, 0.
*SHELL SECTION, ELSET=ELEM_2318, COMPOSITE, ORIENTATION=ORI_2318
1.30451131, 3, CFRP, 0.
** SOURCE_TET=1907
*ELSET, ELSET=ELEM_2319
2319
*ORIENTATION, NAME=ORI_2319, SYSTEM=RECTANGULAR
24.09141015, 4.57087655, -206.93189207, 25.42853464, 4.86596403, -206.57830831
3, 0.
*SHELL SECTION, ELSET=ELEM_2319, COMPOSITE, ORIENTATION=ORI_2319
1.54042697, 3, CFRP, 0.
** SOURCE_TET=3565
*ELSET, ELSET=ELEM_2320
2320
*ORIENTATION, NAME=ORI_2320, SYSTEM=RECTANGULAR
25.96157335, 5.65078921, -206.39126970, 27.27044405, 6.02061686, -206.00386164
3, 0.
*SHELL SECTION, ELSET=ELEM_2320, COMPOSITE, ORIENTATION=ORI_2320
1.50874615, 3, CFRP, 0.
** SOURCE_TET=2343
*ELSET, ELSET=ELEM_2321
2321
*ORIENTATION, NAME=ORI_2321, SYSTEM=RECTANGULAR
24.57194123, -3.64431759, -206.84102587, 25.93212786, -3.79434717, -206.48411768
3, 0.
*SHELL SECTION, ELSET=ELEM_2321, COMPOSITE, ORIENTATION=ORI_2321
1.53919327, 3, CFRP, 0.
** SOURCE_TET=731
*ELSET, ELSET=ELEM_2322
2322
*ORIENTATION, NAME=ORI_2322, SYSTEM=RECTANGULAR
26.59966184, -5.08365848, -206.24475976, 27.94293154, -5.27934511, -205.84810721
3, 0.
*SHELL SECTION, ELSET=ELEM_2322, COMPOSITE, ORIENTATION=ORI_2322
1.50245786, 3, CFRP, 0.
** SOURCE_TET=1422
*ELSET, ELSET=ELEM_2323
2323
*ORIENTATION, NAME=ORI_2323, SYSTEM=RECTANGULAR
18.45247950, 20.54340455, -206.07630107, 19.27170550, 21.62314144, -205.67252263
3, 0.
*SHELL SECTION, ELSET=ELEM_2323, COMPOSITE, ORIENTATION=ORI_2323
1.50418341, 3, CFRP, 0.
** SOURCE_TET=2598
*ELSET, ELSET=ELEM_2324
2324
*ORIENTATION, NAME=ORI_2324, SYSTEM=RECTANGULAR
21.49753667, 20.25528906, -205.50002267, 22.40996701, 21.24800157, -205.07341659
3, 0.
*SHELL SECTION, ELSET=ELEM_2324, COMPOSITE, ORIENTATION=ORI_2324
1.47083688, 3, CFRP, 0.
** SOURCE_TET=5701
*ELSET, ELSET=ELEM_2325
2325
*ORIENTATION, NAME=ORI_2325, SYSTEM=RECTANGULAR
-87.43827008, 2.21213346, -157.22653333, -88.09145516, 1.82419480, -156.03369938
3, 0.
*SHELL SECTION, ELSET=ELEM_2325, COMPOSITE, ORIENTATION=ORI_2325
1.27823663, 3, CFRP, 0.
** SOURCE_TET=6268
*ELSET, ELSET=ELEM_2326
2326
*ORIENTATION, NAME=ORI_2326, SYSTEM=RECTANGULAR
-83.78373395, 8.77530748, -162.74933488, -84.51439152, 8.48050515, -161.57492819
3, 0.
*SHELL SECTION, ELSET=ELEM_2326, COMPOSITE, ORIENTATION=ORI_2326
1.28115225, 3, CFRP, 0.
** SOURCE_TET=7055
*ELSET, ELSET=ELEM_2327
2327
*ORIENTATION, NAME=ORI_2327, SYSTEM=RECTANGULAR
-85.77829054, -7.02809738, -160.27659214, -86.42708337, -7.46108315, -159.09693491
3, 0.
*SHELL SECTION, ELSET=ELEM_2327, COMPOSITE, ORIENTATION=ORI_2327
1.27975202, 3, CFRP, 0.
** SOURCE_TET=7050
*ELSET, ELSET=ELEM_2328
2328
*ORIENTATION, NAME=ORI_2328, SYSTEM=RECTANGULAR
-88.01836148, -13.88850371, -154.57262099, -88.52897792, -14.38714651, -153.35170895
3, 0.
*SHELL SECTION, ELSET=ELEM_2328, COMPOSITE, ORIENTATION=ORI_2328
1.27594721, 3, CFRP, 0.
** SOURCE_TET=2955
*ELSET, ELSET=ELEM_2329
2329
*ORIENTATION, NAME=ORI_2329, SYSTEM=RECTANGULAR
4.26230497, -17.61808070, -208.32260849, 4.62581669, -18.95850273, -208.05591016
3, 0.
*SHELL SECTION, ELSET=ELEM_2329, COMPOSITE, ORIENTATION=ORI_2329
1.65844119, 3, CFRP, 0.
** SOURCE_TET=1320
*ELSET, ELSET=ELEM_2330
2330
*ORIENTATION, NAME=ORI_2330, SYSTEM=RECTANGULAR
-14.16012670, -4.55225738, -208.86973372, -15.47126824, -5.03384664, -208.64842023
3, 0.
*SHELL SECTION, ELSET=ELEM_2330, COMPOSITE, ORIENTATION=ORI_2330
1.68543899, 3, CFRP, 0.
** SOURCE_TET=2316
*ELSET, ELSET=ELEM_2331
2331
*ORIENTATION, NAME=ORI_2331, SYSTEM=RECTANGULAR
22.38816131, 5.92017446, -207.25553932, 23.69534459, 6.34683047, -206.92502984
3, 0.
*SHELL SECTION, ELSET=ELEM_2331, COMPOSITE, ORIENTATION=ORI_2331
1.55792081, 3, CFRP, 0.
** SOURCE_TET=7123
*ELSET, ELSET=ELEM_2332
2332
*ORIENTATION, NAME=ORI_2332, SYSTEM=RECTANGULAR
-17.55282748, 4.22631293, -208.34268195, -18.90406749, 4.54839889, -208.07733112
3, 0.
*SHELL SECTION, ELSET=ELEM_2332, COMPOSITE, ORIENTATION=ORI_2332
1.68193674, 3, CFRP, 0.
** SOURCE_TET=2778
*ELSET, ELSET=ELEM_2333
2333
*ORIENTATION, NAME=ORI_2333, SYSTEM=RECTANGULAR
-17.15312702, 1.98864767, -208.48252100, -18.53936653, 2.09890750, -208.22526082
3, 0.
*SHELL SECTION, ELSET=ELEM_2333, COMPOSITE, ORIENTATION=ORI_2333
1.67454457, 3, CFRP, 0.
** SOURCE_TET=6227
*ELSET, ELSET=ELEM_2334
2334
*ORIENTATION, NAME=ORI_2334, SYSTEM=RECTANGULAR
-37.31797962, -84.58371049, -146.20759313, -37.09989515, -85.18434062, -144.94597409
3, 0.
*SHELL SECTION, ELSET=ELEM_2334, COMPOSITE, ORIENTATION=ORI_2334
1.27161086, 3, CFRP, 0.
** SOURCE_TET=6882
*ELSET, ELSET=ELEM_2335
2335
*ORIENTATION, NAME=ORI_2335, SYSTEM=RECTANGULAR
-46.83874527, -81.83999995, -141.41709032, -46.67263458, -82.42178835, -140.13883780
3, 0.
*SHELL SECTION, ELSET=ELEM_2335, COMPOSITE, ORIENTATION=ORI_2335
1.27192664, 3, CFRP, 0.
** SOURCE_TET=5891
*ELSET, ELSET=ELEM_2336
2336
*ORIENTATION, NAME=ORI_2336, SYSTEM=RECTANGULAR
-16.08407771, -86.26094770, -156.64642094, -15.81530872, -86.94887728, -155.44038772
3, 0.
*SHELL SECTION, ELSET=ELEM_2336, COMPOSITE, ORIENTATION=ORI_2336
1.27780151, 3, CFRP, 0.
** SOURCE_TET=6601
*ELSET, ELSET=ELEM_2337
2337
*ORIENTATION, NAME=ORI_2337, SYSTEM=RECTANGULAR
-23.67486927, -81.45619723, -161.87722486, -23.49276972, -82.22643541, -160.70522960
3, 0.
*SHELL SECTION, ELSET=ELEM_2337, COMPOSITE, ORIENTATION=ORI_2337
1.28054702, 3, CFRP, 0.
** SOURCE_TET=4529
*ELSET, ELSET=ELEM_2338
2338
*ORIENTATION, NAME=ORI_2338, SYSTEM=RECTANGULAR
-33.54991358, -80.69376393, -157.29658685, -33.44205525, -81.43849235, -156.09919545
3, 0.
*SHELL SECTION, ELSET=ELEM_2338, COMPOSITE, ORIENTATION=ORI_2338
1.27987742, 3, CFRP, 0.
** SOURCE_TET=4398
*ELSET, ELSET=ELEM_2339
2339
*ORIENTATION, NAME=ORI_2339, SYSTEM=RECTANGULAR
4.55528921, -92.63545837, -144.99026810, 5.00935413, -93.07934559, -143.72662686
3, 0.
*SHELL SECTION, ELSET=ELEM_2339, COMPOSITE, ORIENTATION=ORI_2339
1.27283263, 3, CFRP, 0.
** SOURCE_TET=4092
*ELSET, ELSET=ELEM_2340
2340
*ORIENTATION, NAME=ORI_2340, SYSTEM=RECTANGULAR
4.01521506, -87.50269752, -156.60265828, 4.44646976, -88.10453862, -155.39774888
3, 0.
*SHELL SECTION, ELSET=ELEM_2340, COMPOSITE, ORIENTATION=ORI_2340
1.27734780, 3, CFRP, 0.
** SOURCE_TET=5753
*ELSET, ELSET=ELEM_2341
2341
*ORIENTATION, NAME=ORI_2341, SYSTEM=RECTANGULAR
-5.77443154, -84.64317462, -161.75011691, -5.44414514, -85.35825261, -160.57556407
3, 0.
*SHELL SECTION, ELSET=ELEM_2341, COMPOSITE, ORIENTATION=ORI_2341
1.28272223, 3, CFRP, 0.
** SOURCE_TET=2286
*ELSET, ELSET=ELEM_2342
2342
*ORIENTATION, NAME=ORI_2342, SYSTEM=RECTANGULAR
17.95657438, -92.89979381, -139.03713348, 18.47106126, -93.16007232, -137.74579373
3, 0.
*SHELL SECTION, ELSET=ELEM_2342, COMPOSITE, ORIENTATION=ORI_2342
1.26971924, 3, CFRP, 0.
** SOURCE_TET=3551
*ELSET, ELSET=ELEM_2343
2343
*ORIENTATION, NAME=ORI_2343, SYSTEM=RECTANGULAR
14.27034309, -83.77813389, -161.37245968, 14.76111654, -84.39663287, -160.19917351
3, 0.
*SHELL SECTION, ELSET=ELEM_2343, COMPOSITE, ORIENTATION=ORI_2343
1.28211474, 3, CFRP, 0.
** SOURCE_TET=6149
*ELSET, ELSET=ELEM_2344
2344
*ORIENTATION, NAME=ORI_2344, SYSTEM=RECTANGULAR
23.57405474, -84.82801505, -156.18904723, 24.13904667, -85.32605919, -154.99207766
3, 0.
*SHELL SECTION, ELSET=ELEM_2344, COMPOSITE, ORIENTATION=ORI_2344
1.27715743, 3, CFRP, 0.
** SOURCE_TET=6437
*ELSET, ELSET=ELEM_2345
2345
*ORIENTATION, NAME=ORI_2345, SYSTEM=RECTANGULAR
26.73962199, -88.84058294, -145.46978015, 27.28247671, -89.14597173, -144.20011625
3, 0.
*SHELL SECTION, ELSET=ELEM_2345, COMPOSITE, ORIENTATION=ORI_2345
1.27135968, 3, CFRP, 0.
** SOURCE_TET=5437
*ELSET, ELSET=ELEM_2346
2346
*ORIENTATION, NAME=ORI_2346, SYSTEM=RECTANGULAR
14.04988206, -78.35447218, -169.77893802, 14.53671155, -79.07146627, -168.66138868
3, 0.
*SHELL SECTION, ELSET=ELEM_2346, COMPOSITE, ORIENTATION=ORI_2346
1.28782094, 3, CFRP, 0.
** SOURCE_TET=6721
*ELSET, ELSET=ELEM_2347
2347
*ORIENTATION, NAME=ORI_2347, SYSTEM=RECTANGULAR
-5.64114826, -79.57461149, -169.63743323, -5.34262882, -80.38533879, -168.51778713
3, 0.
*SHELL SECTION, ELSET=ELEM_2347, COMPOSITE, ORIENTATION=ORI_2347
1.28817332, 3, CFRP, 0.
** SOURCE_TET=6502
*ELSET, ELSET=ELEM_2348
2348
*ORIENTATION, NAME=ORI_2348, SYSTEM=RECTANGULAR
36.61530903, -86.02336916, -144.02360537, 37.17513620, -86.25397556, -142.74555442
3, 0.
*SHELL SECTION, ELSET=ELEM_2348, COMPOSITE, ORIENTATION=ORI_2348
1.27252376, 3, CFRP, 0.
** SOURCE_TET=3141
*ELSET, ELSET=ELEM_2349
2349
*ORIENTATION, NAME=ORI_2349, SYSTEM=RECTANGULAR
35.61489154, 26.64189291, -199.46584879, 36.52486872, 27.50397245, -198.81105081
3, 0.
*SHELL SECTION, ELSET=ELEM_2349, COMPOSITE, ORIENTATION=ORI_2349
1.37199605, 3, CFRP, 0.
** SOURCE_TET=4490
*ELSET, ELSET=ELEM_2350
2350
*ORIENTATION, NAME=ORI_2350, SYSTEM=RECTANGULAR
37.81490122, 30.22058958, -197.31974584, 38.67251729, 31.09969074, -196.61854984
3, 0.
*SHELL SECTION, ELSET=ELEM_2350, COMPOSITE, ORIENTATION=ORI_2350
1.36017120, 3, CFRP, 0.
** SOURCE_TET=6179
*ELSET, ELSET=ELEM_2351
2351
*ORIENTATION, NAME=ORI_2351, SYSTEM=RECTANGULAR
40.98581212, 40.54207112, -191.49294306, 41.65050439, 41.49084593, -190.68176456
3, 0.
*SHELL SECTION, ELSET=ELEM_2351, COMPOSITE, ORIENTATION=ORI_2351
1.33146214, 3, CFRP, 0.
** SOURCE_TET=3716
*ELSET, ELSET=ELEM_2352
2352
*ORIENTATION, NAME=ORI_2352, SYSTEM=RECTANGULAR
22.70894456, -4.99516262, -207.22526513, 24.06397536, -5.22479477, -206.89185756
3, 0.
*SHELL SECTION, ELSET=ELEM_2352, COMPOSITE, ORIENTATION=ORI_2352
1.55730391, 3, CFRP, 0.
** SOURCE_TET=2650
*ELSET, ELSET=ELEM_2353
2353
*ORIENTATION, NAME=ORI_2353, SYSTEM=RECTANGULAR
3.00557998, 20.78631198, -207.75722801, 3.13805153, 22.15969579, -207.44695682
3, 0.
*SHELL SECTION, ELSET=ELEM_2353, COMPOSITE, ORIENTATION=ORI_2353
1.58752632, 3, CFRP, 0.
** SOURCE_TET=1820
*ELSET, ELSET=ELEM_2354
2354
*ORIENTATION, NAME=ORI_2354, SYSTEM=RECTANGULAR
4.76497523, 21.51087836, -207.52903187, 5.02567762, 22.86355141, -207.20917268
3, 0.
*SHELL SECTION, ELSET=ELEM_2354, COMPOSITE, ORIENTATION=ORI_2354
1.58527243, 3, CFRP, 0.
** SOURCE_TET=2308
*ELSET, ELSET=ELEM_2355
2355
*ORIENTATION, NAME=ORI_2355, SYSTEM=RECTANGULAR
4.49508704, 18.25782617, -208.20442710, 4.79818048, 19.61194360, -207.93147961
3, 0.
*SHELL SECTION, ELSET=ELEM_2355, COMPOSITE, ORIENTATION=ORI_2355
1.63594306, 3, CFRP, 0.
** SOURCE_TET=1279
*ELSET, ELSET=ELEM_2356
2356
*ORIENTATION, NAME=ORI_2356, SYSTEM=RECTANGULAR
2.85447088, 18.82489428, -208.15398207, 3.01804109, 20.20248221, -207.87921619
3, 0.
*SHELL SECTION, ELSET=ELEM_2356, COMPOSITE, ORIENTATION=ORI_2356
1.65284991, 3, CFRP, 0.
** SOURCE_TET=837
*ELSET, ELSET=ELEM_2357
2357
*ORIENTATION, NAME=ORI_2357, SYSTEM=RECTANGULAR
-8.28196843, 14.18500358, -208.62190308, -9.02208725, 15.36602472, -208.38229256
3, 0.
*SHELL SECTION, ELSET=ELEM_2357, COMPOSITE, ORIENTATION=ORI_2357
1.68174481, 3, CFRP, 0.
** SOURCE_TET=6835
*ELSET, ELSET=ELEM_2358
2358
*ORIENTATION, NAME=ORI_2358, SYSTEM=RECTANGULAR
-51.80463957, -60.62560332, -169.75302655, -52.06332907, -61.44166678, -168.62736222
3, 0.
*SHELL SECTION, ELSET=ELEM_2358, COMPOSITE, ORIENTATION=ORI_2358
1.28822494, 3, CFRP, 0.
** SOURCE_TET=6220
*ELSET, ELSET=ELEM_2359
2359
*ORIENTATION, NAME=ORI_2359, SYSTEM=RECTANGULAR
-35.38845635, -69.77018126, -171.56787827, -35.48721497, -70.66251831, -170.47518374
3, 0.
*SHELL SECTION, ELSET=ELEM_2359, COMPOSITE, ORIENTATION=ORI_2359
1.29070306, 3, CFRP, 0.
** SOURCE_TET=3991
*ELSET, ELSET=ELEM_2360
2360
*ORIENTATION, NAME=ORI_2360, SYSTEM=RECTANGULAR
-39.59246938, -74.21569494, -162.92260658, -39.58515344, -75.01798962, -161.75801664
3, 0.
*SHELL SECTION, ELSET=ELEM_2360, COMPOSITE, ORIENTATION=ORI_2360
1.28318882, 3, CFRP, 0.
** SOURCE_TET=2158
*ELSET, ELSET=ELEM_2361
2361
*ORIENTATION, NAME=ORI_2361, SYSTEM=RECTANGULAR
10.61086240, 16.96543078, -207.96467748, 11.28334292, 18.17423174, -207.67044935
3, 0.
*SHELL SECTION, ELSET=ELEM_2361, COMPOSITE, ORIENTATION=ORI_2361
1.61761391, 3, CFRP, 0.
** SOURCE_TET=1626
*ELSET, ELSET=ELEM_2362
2362
*ORIENTATION, NAME=ORI_2362, SYSTEM=RECTANGULAR
9.42643122, 15.33401858, -208.35157963, 10.10181841, 16.54839713, -208.08864066
3, 0.
*SHELL SECTION, ELSET=ELEM_2362, COMPOSITE, ORIENTATION=ORI_2362
1.65295076, 3, CFRP, 0.
** SOURCE_TET=2271
*ELSET, ELSET=ELEM_2363
2363
*ORIENTATION, NAME=ORI_2363, SYSTEM=RECTANGULAR
5.65309402, 19.97731618, -207.80904623, 5.97985118, 21.31866801, -207.50244384
3, 0.
*SHELL SECTION, ELSET=ELEM_2363, COMPOSITE, ORIENTATION=ORI_2363
1.60364056, 3, CFRP, 0.
** SOURCE_TET=5525
*ELSET, ELSET=ELEM_2364
2364
*ORIENTATION, NAME=ORI_2364, SYSTEM=RECTANGULAR
39.07703041, -13.19015509, -201.00347119, 40.33025278, -13.45742737, -200.40514081
3, 0.
*SHELL SECTION, ELSET=ELEM_2364, COMPOSITE, ORIENTATION=ORI_2364
1.39119911, 3, CFRP, 0.
** SOURCE_TET=6320
*ELSET, ELSET=ELEM_2365
2365
*ORIENTATION, NAME=ORI_2365, SYSTEM=RECTANGULAR
-72.77610125, -35.15639363, -168.24340520, -73.33668525, -35.79427267, -167.11254008
3, 0.
*SHELL SECTION, ELSET=ELEM_2365, COMPOSITE, ORIENTATION=ORI_2365
1.28772473, 3, CFRP, 0.
** SOURCE_TET=5521
*ELSET, ELSET=ELEM_2366
2366
*ORIENTATION, NAME=ORI_2366, SYSTEM=RECTANGULAR
-79.77200379, -18.03989052, -166.79819656, -80.45456314, -18.55563632, -165.67208865
3, 0.
*SHELL SECTION, ELSET=ELEM_2366, COMPOSITE, ORIENTATION=ORI_2366
1.28521037, 3, CFRP, 0.
** SOURCE_TET=5282
*ELSET, ELSET=ELEM_2367
2367
*ORIENTATION, NAME=ORI_2367, SYSTEM=RECTANGULAR
-84.23466653, -21.09087624, -158.59792531, -84.76100125, -21.60966243, -157.39217548
3, 0.
*SHELL SECTION, ELSET=ELEM_2367, COMPOSITE, ORIENTATION=ORI_2367
1.28014970, 3, CFRP, 0.
** SOURCE_TET=6500
*ELSET, ELSET=ELEM_2368
2368
*ORIENTATION, NAME=ORI_2368, SYSTEM=RECTANGULAR
-81.13043706, -9.27429969, -167.10026328, -81.87268451, -9.69206712, -165.97130840
3, 0.
*SHELL SECTION, ELSET=ELEM_2368, COMPOSITE, ORIENTATION=ORI_2368
1.28678620, 3, CFRP, 0.
** SOURCE_TET=2985
*ELSET, ELSET=ELEM_2369
2369
*ORIENTATION, NAME=ORI_2369, SYSTEM=RECTANGULAR
-22.03351134, 10.81393233, -206.90919553, -23.29311703, 11.35163093, -206.55667074
3, 0.
*SHELL SECTION, ELSET=ELEM_2369, COMPOSITE, ORIENTATION=ORI_2369
1.53588688, 3, CFRP, 0.
** SOURCE_TET=334
*ELSET, ELSET=ELEM_2370
2370
*ORIENTATION, NAME=ORI_2370, SYSTEM=RECTANGULAR
-10.97308874, -17.12441111, -207.89688395, -11.65544503, -18.32624336, -207.59690208
3, 0.
*SHELL SECTION, ELSET=ELEM_2370, COMPOSITE, ORIENTATION=ORI_2370
1.62077880, 3, CFRP, 0.
** SOURCE_TET=7011
*ELSET, ELSET=ELEM_2371
2371
*ORIENTATION, NAME=ORI_2371, SYSTEM=RECTANGULAR
-73.83267247, 17.72194406, -174.59898603, -74.76395509, 17.60649625, -173.54097634
3, 0.
*SHELL SECTION, ELSET=ELEM_2371, COMPOSITE, ORIENTATION=ORI_2371
1.29435384, 3, CFRP, 0.
** SOURCE_TET=2374
*ELSET, ELSET=ELEM_2372
2372
*ORIENTATION, NAME=ORI_2372, SYSTEM=RECTANGULAR
13.44286024, 20.33882866, -206.96310977, 14.12038299, 21.52989529, -206.61336243
3, 0.
*SHELL SECTION, ELSET=ELEM_2372, COMPOSITE, ORIENTATION=ORI_2372
1.54097879, 3, CFRP, 0.
