*HEADING
Hybrid COPV layup exported from the main JAX workflow notebook
** Exported from copv-optimizer-fw
** Surface shell extracted from the outer boundary of the tetrahedral COPV mesh.
*NODE
1, 100.00000000, -0.00000000, 110.00000000
2, 100.00000000, -0.00000000, -110.00000000
3, 10.00000000, -0.00000000, 209.49874371
4, 10.00000000, -0.00000000, -209.49874371
5, 93.96926208, 34.20201433, 110.00000000
6, 76.60444431, 64.27876097, 110.00000000
7, 50.00000000, 86.60254038, 110.00000000
8, 17.36481777, 98.48077530, 110.00000000
9, -17.36481777, 98.48077530, 110.00000000
10, -50.00000000, 86.60254038, 110.00000000
11, -76.60444431, 64.27876097, 110.00000000
12, -93.96926208, 34.20201433, 110.00000000
13, -100.00000000, -0.00000000, 110.00000000
14, -93.96926208, -34.20201433, 110.00000000
15, -76.60444431, -64.27876097, 110.00000000
16, -50.00000000, -86.60254038, 110.00000000
17, -17.36481777, -98.48077530, 110.00000000
18, 17.36481777, -98.48077530, 110.00000000
19, 50.00000000, -86.60254038, 110.00000000
20, 76.60444431, -64.27876097, 110.00000000
21, 93.96926208, -34.20201433, 110.00000000
22, 100.00000000, -0.00000000, -78.57142857
23, 100.00000000, -0.00000000, -47.14285714
24, 100.00000000, -0.00000000, -15.71428571
25, 100.00000000, -0.00000000, 15.71428571
26, 100.00000000, -0.00000000, 47.14285714
27, 100.00000000, -0.00000000, 78.57142857
28, 93.96926208, 34.20201433, -110.00000000
29, 76.60444431, 64.27876097, -110.00000000
30, 50.00000000, 86.60254038, -110.00000000
31, 17.36481777, 98.48077530, -110.00000000
32, -17.36481777, 98.48077530, -110.00000000
33, -50.00000000, 86.60254038, -110.00000000
34, -76.60444431, 64.27876097, -110.00000000
35, -93.96926208, 34.20201433, -110.00000000
36, -100.00000000, -0.00000000, -110.00000000
37, -93.96926208, -34.20201433, -110.00000000
38, -76.60444431, -64.27876097, -110.00000000
39, -50.00000000, -86.60254038, -110.00000000
40, -17.36481777, -98.48077530, -110.00000000
41, 17.36481777, -98.48077530, -110.00000000
42, 50.00000000, -86.60254038, -110.00000000
43, 76.60444431, -64.27876097, -110.00000000
44, 93.96926208, -34.20201433, -110.00000000
45, 95.70559469, -0.00000000, 138.99032846
46, 83.19121711, -0.00000000, 165.49073252
47, 63.53170344, -0.00000000, 187.22514265
48, 38.41557209, -0.00000000, 202.32683153
49, 6.23489802, 7.81831482, 209.49874371
50, -2.22520934, 9.74927912, 209.49874371
51, -9.00968868, 4.33883739, 209.49874371
52, -9.00968868, -4.33883739, 209.49874371
53, -2.22520934, -9.74927912, 209.49874371
54, 6.23489802, -7.81831482, 209.49874371
55, 38.41557209, -0.00000000, -202.32683153
56, 63.53170344, -0.00000000, -187.22514265
57, 83.19121711, -0.00000000, -165.49073252
58, 95.70559469, -0.00000000, -138.99032846
59, 6.23489802, 7.81831482, -209.49874371
60, -2.22520934, 9.74927912, -209.49874371
61, -9.00968868, 4.33883739, -209.49874371
62, -9.00968868, -4.33883739, -209.49874371
63, -2.22520934, -9.74927912, -209.49874371
64, 6.23489802, -7.81831482, -209.49874371
65, 96.29591837, -26.96471965, -0.00000000
66, 96.23938027, 27.16581834, 0.04589265
67, -86.60254038, -50.00000000, -79.96164711
68, -0.99953388, -99.99500454, 80.07067753
69, -86.60254038, 50.00000000, -79.96164711
70, -0.00000000, 100.00000000, 79.96164711
71, -98.48077530, -17.36481777, 79.96164711
72, -1.17410178, -99.99310719, -80.06095323
73, -0.00000000, 100.00000000, -79.96164711
74, 64.27876097, 76.60444431, 79.96164711
75, 58.91790721, 80.80024882, -80.10214629
76, 64.27876097, -76.60444431, 79.96164711
77, 60.51442189, -79.61158674, -79.98854984
78, -86.60254038, 50.00000000, 79.96164711
79, -64.29355816, -76.59202556, 79.97587666
80, 96.29591837, 26.96471965, -62.85714286
81, 96.79739984, 25.10504701, 62.95382767
82, 96.29591837, -26.96471965, -62.85714286
83, 96.29591837, -26.96471965, 62.85714286
84, 96.21705015, 27.24480246, -31.37104843
85, 85.01771253, 52.64967764, -15.63373171
86, 82.97300419, 55.81649018, 19.76853441
87, 65.82583548, 75.27920950, 0.25678273
88, 67.45723289, 73.82087598, -31.75384925
89, 42.33655491, 90.59589460, -16.02512991
90, 37.07795685, 92.87209008, 19.67547489
91, 11.26999402, 99.36290673, -0.35025153
92, 14.37550249, 98.96133047, -32.67465217
93, -16.15348101, 98.68670149, -16.38364847
94, -15.64538250, 98.76852741, 18.38582390
95, -44.27327744, 89.66536067, 1.27330874
96, -44.41715860, 89.59417404, -33.30717897
97, -68.92049883, 72.45664111, -15.89337127
98, -43.02251115, 90.27216367, 35.97892508
99, -67.70377873, 73.59482553, -50.79054142
100, -87.35357744, 48.67599520, -33.10203809
101, -87.28303308, 48.80237839, 1.58127392
102, -97.83811039, 20.68100954, -16.35058914
103, -97.82282994, 20.75316703, 18.99601372
104, -99.55477184, -9.42589012, 1.80972451
105, -99.38731486, -11.05267593, -33.46987228
106, -92.18658108, -38.75092605, -15.32979493
107, -92.31591959, -38.44178702, 19.33534789
108, -77.04428856, -63.75090274, 1.12722705
109, -76.68425614, -64.18352484, -31.91311982
110, -54.66932030, -83.73329934, -15.11006709
111, -61.48887864, -78.86138347, 21.53660697
112, -29.52185141, -95.54297614, 3.16091084
113, -51.28812465, -85.84595663, -51.05677653
114, -29.79337854, -95.45865385, 36.74732726
115, 5.06357220, -99.87171890, 22.60933574
116, 2.81692637, -99.96031676, -14.22968129
117, 32.56343320, -94.54957863, 2.60687688
118, 33.55446804, -94.20242924, -30.57219762
119, 58.81746474, -80.87339391, -14.27501434
120, 58.69752109, -80.96049047, 19.33904380
121, -87.20060256, 48.94951392, 36.28304886
122, -98.30835847, 18.31574885, 55.26890497
123, -47.42919213, 88.03676353, -67.68943596
124, -97.71044571, 21.27601464, -57.49673798
125, -98.88606719, -14.88441186, -73.15587601
126, 78.65933443, -61.74713845, 2.41640864
127, 76.58784040, -64.29854355, -30.45483952
128, 73.04233426, -68.29946857, 35.57445443
129, -68.56837446, 72.78995826, 57.31058461
130, -26.51599730, -96.42044331, -32.37218875
131, -99.52340448, -9.75151064, 36.67376651
132, -68.50031233, 72.85401300, 19.27393717
133, -39.43809151, 91.89470571, 72.01729327
134, 96.00055735, 27.99808901, 30.54991932
135, 96.29878798, -26.95446963, 31.44683622
136, 96.29591837, -26.96471965, -31.42857143
137, 34.20256892, 93.96906022, 79.96567329
138, 23.89676850, 97.10275205, 50.72241041
139, 50.00000000, 86.60254038, 50.74187822
140, 71.62915101, 69.78011697, 50.33049724
141, 33.19247285, 94.33058754, -80.09081006
142, 34.42837803, -93.88656339, 80.09677511
143, 30.38784664, -95.27108048, -80.02537145
144, 17.59473583, -98.43995770, 50.78452781
145, -34.20201433, -93.96926208, 79.96164711
146, -34.20201433, -93.96926208, -79.96164711
147, -86.60556793, -49.99475577, 79.98152308
148, -77.34239537, -63.38890974, 51.57021495
149, 50.00692916, -86.59853946, 51.31357497
150, 59.26252950, -80.54782801, -47.52769660
151, -13.77179830, 99.04714823, -51.68886346
152, -64.27876097, -76.60444431, -81.12776899
153, 85.46261850, 51.92437616, -47.14285302
154, 85.56642129, 51.75314047, -81.10616825
155, 85.56642129, 51.75314047, 81.10616825
156, 85.56642129, -51.75314047, -81.10616825
157, 85.56642129, -51.75314047, 81.10616825
158, -90.82630732, -41.83995577, -48.93631520
159, 45.85448501, 88.86712668, -49.90738371
160, -7.26367275, 99.73584641, 51.02750161
161, 8.30040093, -99.65492133, -48.73842796
162, -90.01632661, -43.55526310, 51.39307562
163, -52.56862321, -85.06785441, 51.60701135
164, -98.48077530, 17.36481777, 84.52841536
165, -67.15961517, 74.09174104, -82.11493916
166, -64.27876097, 76.60444431, 86.28180937
167, -98.48077530, 17.36481777, -86.54710922
168, 63.54950024, 77.21049811, 27.32043842
169, 76.50782982, -64.39372622, -57.03651275
170, 34.61930038, -93.81633142, 29.93743858
171, -76.15532677, -64.81023226, -59.82174612
172, 17.57608425, 98.44328957, -59.82285831
173, 97.26399653, -23.23176658, 87.65201324
174, 97.26399653, -23.23176658, -87.65201324
175, 97.26399653, 23.23176658, 87.65201324
176, 97.26399653, 23.23176658, -87.65201324
177, -19.82162943, -98.01583039, -58.01407453
178, 74.89497808, -66.26267620, 59.96349803
179, -25.69667226, 96.64202520, -85.01366322
180, -5.53990695, -99.84642924, 54.23453886
181, 88.83873430, -45.90946839, -47.15294578
182, 89.62023517, -44.36455171, -15.81614680
183, 89.53053469, 44.54529558, 47.14285714
184, 71.30375076, 70.11258894, -56.81965615
185, 10.56103915, 99.44075851, 25.27396760
186, 89.94379661, -43.70484471, 15.72945597
187, 36.56227623, -93.07631255, -54.69398236
188, 87.65641409, -48.12850579, 47.14548933
189, -79.76218341, -60.31578647, 25.58920187
190, 52.58728193, 29.31824378, 189.84371209
191, 53.63362557, -22.85089171, 191.24820587
192, -62.50136229, -73.95334407, 134.98965009
193, -10.86430931, -14.08014408, 208.40587546
194, -19.03256336, -7.56124179, 207.88048403
195, -3.03517884, -19.81251771, 207.97066822
196, -18.14908579, -15.44245913, 207.11921098
197, -61.04815157, 73.91705273, 138.44982436
198, -10.86723024, 14.08415398, 208.40497911
199, -18.59276093, 5.73670438, 208.08873260
200, -2.84858163, 19.99182003, 207.93984233
201, -20.23127360, 15.64662003, 206.67408572
202, -93.93518735, -17.57298551, 139.45115885
203, -4.05092761, -94.86290488, 141.37864342
204, -0.00000000, 95.41888941, 139.92048701
205, 64.41630030, -71.77036669, 136.44909679
206, 60.97338031, 73.62400020, 139.35563810
207, 86.29436070, -23.71710336, 154.61818373
208, 87.35248235, 26.43940610, 150.87177061
209, 25.68112982, -23.29070948, 203.79777408
210, 26.64690046, 24.49590160, 203.21959826
211, 18.15406274, 8.42683018, 207.97662241
212, 11.10244984, 16.28702066, 208.03809752
213, 21.74976306, -10.32051133, 207.05892464
214, 12.53750553, -20.28985998, 207.11401823
215, 13.47682731, -31.37043274, 203.99080314
216, 25.61572016, -37.82781293, 198.95443468
217, 11.98693325, -45.38287100, 198.29897197
218, 25.33046503, -52.21993811, 191.43368839
219, 9.51331248, -59.96904546, 189.45571390
220, -5.21307955, -52.26252734, 195.09672166
221, -7.47372429, -66.20748182, 184.57018705
222, -22.62940139, -58.56840733, 187.83091838
223, 24.47187593, -68.01132449, 179.10562228
224, -25.46815983, -70.13466367, 176.57703648
225, -40.21196282, -56.96688967, 181.67825003
226, -36.56243764, -44.62565458, 191.68071442
227, -53.04772630, -42.42110297, 183.39202107
228, -50.21909167, -27.77978125, 191.89216437
229, -64.65774799, -27.16143035, 181.28556885
230, -59.02537095, -10.95612479, 189.97480175
231, 42.51051017, -57.51023556, 179.89584631
232, -43.03460677, -10.57688647, 199.64458764
233, -51.38121627, 3.81474398, 195.70541606
234, -65.41377234, 4.57635148, 185.49897612
235, -57.28689589, 20.13258824, 189.45370004
236, -72.21127570, 21.06751090, 175.89151422
237, -60.43434025, 37.10443071, 180.50497670
238, -46.47380607, 35.83478914, 190.96945867
239, -47.09215610, 51.47723706, 181.64093033
240, -31.81772120, 48.74531935, 191.31129355
241, -32.64456994, 64.97489647, 178.64834217
242, -15.01888585, 60.73219630, 188.01303353
243, -74.74896931, 37.36656731, 164.92113650
244, -14.16338801, 46.90927842, 197.17177318
245, 1.34616723, 54.08176925, 194.10321081
246, 0.98437797, 68.74006241, 182.62117336
247, 18.15465914, 60.91779959, 187.19734481
248, 17.78312708, 75.76919681, 172.79163325
249, -12.52152850, 22.55360111, 206.61545632
250, -67.91925276, -42.51855061, 169.82598063
251, 36.76727484, 65.22081157, 176.29037064
252, -22.53014749, 27.34821293, 203.51185863
253, -30.61654656, 18.43448413, 203.39591464
254, 0.35694755, -39.00411904, 202.07904912
255, 2.03208858, 40.68798823, 201.32556176
256, 36.93062439, 50.42617445, 188.05978422
257, 54.75910909, 50.97358479, 176.35611220
258, -84.69369444, 18.52841186, 159.83649342
259, 68.38996351, 30.37564044, 176.33350103
260, -34.85969420, -26.00329525, 200.04793366
261, -22.43821026, -36.80344918, 200.23321367
262, -12.49679849, -22.52480013, 206.62537662
263, -7.01268216, -81.40421934, 167.65566201
264, -26.24088101, -84.26009412, 157.02821177
265, 39.01818544, -71.83369207, 167.59775941
266, 19.29942726, -83.22221731, 161.97686652
267, 26.36234523, -93.25825195, 134.65613915
268, 71.58076561, 49.11042543, 159.64232174
269, 84.94132092, 47.25519726, 133.49294220
270, 35.59429384, 80.05205963, 158.21528797
271, -80.34322965, -24.88939858, 164.08773695
272, -82.14458631, -41.28104274, 149.34644140
273, 59.72489588, -60.91457656, 162.17615524
274, -36.88490152, 4.02556024, 202.86171926
275, 73.33505553, -22.37397372, 174.19793557
276, -32.45885845, -7.69489170, 204.27200618
277, -51.94239329, 67.61302261, 162.25387023
278, -30.67612714, 79.26229517, 162.69216060
279, -86.90687382, 36.42749882, 143.46987619
280, -43.90699842, 19.35702306, 197.73529021
281, -0.99561474, 83.80392711, 164.55190695
282, -95.45302305, 11.87416127, 137.34455494
283, 18.71755834, 46.73436229, 196.40342812
284, 16.15926631, 31.67391217, 203.46465321
285, 83.05152547, -47.85007988, 138.50989253
286, -33.12934322, 89.99281428, 138.35030857
287, 58.47579345, -39.98154804, 180.58369072
288, 73.43411338, -39.23039135, 165.39320704
289, -27.75166679, 0.41023992, 206.07120637
290, -26.71115253, 8.57725701, 205.98408718
291, -4.02267243, 29.22799057, 205.54864036
292, 4.81543768, 24.56624653, 206.81586178
293, -38.97266761, -88.57186062, 135.22214674
294, -49.68190943, -69.03686267, 162.58915733
295, -73.42934060, -10.20749218, 177.11139279
296, -85.93962625, -3.82880918, 160.98745787
297, 29.32081104, 92.16823180, 135.40289523
298, 53.83885893, 66.22319620, 162.11396698
299, -35.56699765, 33.02978063, 197.43009934
300, 42.26318604, -42.52922197, 190.03179609
301, -16.45718465, 76.02643230, 172.84220448
302, 32.61450910, 36.65128669, 197.13768978
303, 7.97058437, -73.96816441, 176.82200565
304, -62.92131984, 51.37744259, 168.32037296
305, -72.55143789, 55.06623896, 151.27951292
306, -13.14032221, 0.00000000, 209.13290035
307, 16.76850721, 87.97707758, 154.48427798
308, -24.62877894, 38.31022155, 199.02668237
309, 21.02221175, 14.79349838, 206.63963482
310, -67.74427313, -58.60263804, 154.45721846
311, -77.38561793, -58.17491922, 135.04286148
312, 37.07176987, -29.77020465, 197.97396657
313, 4.55273993, -26.56074365, 206.30056830
314, -5.87704071, -30.19498329, 205.15105557
315, 2.73502136, -14.87540715, 208.84959241
316, 2.92399677, 12.81086689, 209.13290035
317, -21.22834300, -26.14457293, 204.15847684
318, -15.32513724, -31.80885691, 203.55926887
319, -10.92299112, -41.47536066, 200.33539020
320, -17.69867195, -48.63147117, 195.56714920
321, -13.85417982, 35.41216964, 202.48805297
322, -55.32447662, -55.42107008, 172.19089385
323, -16.39644742, 88.00039050, 154.57676283
324, -81.06539772, 54.74653504, 130.76579381
325, 95.62532299, -21.32484770, 130.02619469
326, 95.56590082, 21.87198189, 129.71737835
327, -77.30678186, 5.51323985, 173.19229118
328, -28.15162657, -16.85269819, 204.46413333
329, 37.15929879, 23.13204364, 199.91159586
330, -45.78341307, 78.72246869, 151.31164498
331, 37.71396924, -18.21018091, 200.80774105
332, -88.39149582, -42.49201702, 129.52874692
333, 44.67316908, -81.68124660, 146.50317683
334, 52.36453806, 26.17451776, -191.07311376
335, 53.11258728, -23.15758854, -191.50324635
336, -62.27715758, -73.62781529, -136.46696922
337, -10.86430931, -14.08014408, -208.40587546
338, -18.98608648, -7.57079590, -207.88877142
339, -2.41446344, -19.47513385, -208.05554308
340, -18.30996099, -15.69062454, -207.04921241
341, -60.85074207, 74.27875138, -137.92587120
342, -10.86430931, 14.08014408, -208.40587546
343, -18.58777609, 5.73572073, -208.08973488
344, -3.46819776, 19.39355577, -208.04010199
345, -20.21654546, 15.64223866, -206.67787575
346, -93.96926208, -16.56931626, -139.92048701
347, -0.00000000, 95.41888941, -139.92048701
348, -4.05092761, -94.86290488, -141.37864342
349, 61.33407985, 73.09511000, -139.92048701
350, 64.49851187, -71.67669764, -136.50269761
351, 87.48562242, 25.28733177, -151.31363845
352, 86.53755484, -23.99458291, -153.99444957
353, 25.68112982, -23.29070948, -203.79777408
354, 26.69713907, 24.42701166, -203.22330109
355, 17.15320150, 8.02681492, -208.19031480
356, 11.08077325, 15.62657577, -208.14798314
357, 21.23565077, -10.21731353, -207.18360788
358, 11.23920759, -16.61419343, -207.96759050
359, 13.46844584, -31.15305167, -204.06427770
360, 25.79440918, -38.09994857, -198.78649883
361, 11.99503741, -45.38120586, -198.29872724
362, 25.33047647, -52.24664249, -191.41655427
363, 9.40155907, -59.47037230, -189.84288012
364, -3.82247582, -53.00110978, -194.71287412
365, -7.31464049, -65.70311168, -185.03064141
366, -22.06252601, -54.43280953, -190.93401135
367, 24.62720485, -68.31784090, -178.74717010
368, -26.21460096, -70.39656807, -176.00846841
369, -40.21196282, -56.96688967, -181.67825003
370, -37.28556174, -41.86077706, -192.80979549
371, -53.04772630, -42.42110297, -183.39202107
372, -49.23759780, -26.93821696, -192.76467501
373, -64.57698244, -27.11569831, -181.37613217
374, -58.64496912, -10.68466737, -190.29075588
375, 42.14098635, -57.31450287, -180.27933572
376, -43.03511418, -10.57726625, -199.64429924
377, -51.38150375, 3.81345078, -195.70530127
378, -65.41255160, 4.57458431, -185.50014087
379, -56.94552382, 19.83406427, -189.77353704
380, -72.13731787, 21.12440936, -175.95427735
381, -60.43757327, 37.07854013, -180.51582517
382, -45.85771698, 35.58291960, -191.43049568
383, -47.11984496, 51.42827130, -181.65788946
384, -31.75250444, 48.65376049, -191.39158465
385, -32.59349776, 64.70052392, -178.93116936
386, -15.15509988, 60.69170523, -188.01820213
387, -74.73587250, 37.33969572, -164.95722414
388, -13.47062423, 44.88904092, -198.33751348
389, 1.14094252, 54.07261135, -194.11213320
390, 0.52081067, 70.02230486, -181.39051463
391, 17.83977995, 60.91857338, -187.27010851
392, 17.44410838, 75.67188605, -173.00372009
393, -12.49679849, 22.52480013, -206.62537662
394, 36.28058047, 65.27905475, -176.50086084
395, -67.91906742, -42.51839008, -169.82630514
396, -22.99047900, 27.57496156, -203.33305615
397, -30.58521565, 18.49119102, -203.39497009
398, -0.78073535, -36.91215016, -202.93483536
399, 2.16553522, 40.70208343, -201.31621358
400, 39.75510924, 48.81978145, -187.69272958
401, 53.38143533, 52.52289322, -176.27041610
402, -84.65041129, 18.68686209, -159.85086814
403, -35.25496294, -26.86938094, -199.63885294
404, -24.77954044, -39.96491519, -198.25406466
405, -12.49679849, -22.52480013, -206.62537662
406, -6.96950752, -81.27811925, -167.83851049
407, -26.39853980, -84.27679600, -156.90990037
408, 39.09171250, -71.73771850, -167.66747574
409, 71.08592786, 24.82228212, -175.80763763
410, 36.20721837, 80.07730078, -157.71439237
411, 19.37042094, -83.14184182, -162.07898743
412, 26.49391354, -93.20117339, -134.73082738
413, -80.32710121, -24.71836392, -164.19002949
414, -82.28984409, -40.70486909, -149.64208865
415, 59.43191833, -61.16601842, -162.21652299
416, -36.88681988, 4.02395706, -202.86102675
417, 72.57860183, -22.12176085, -175.13811675
418, -52.02471157, 67.44524001, -162.38863414
419, -30.76326660, 79.14706701, -162.81442239
420, -32.45661271, -7.85826432, -204.25930179
421, -86.88500430, 36.41470591, -143.54050121
422, -2.18275732, 82.76175219, -166.08678940
423, -43.41068546, 19.30522685, -197.99329863
424, 72.64375288, 46.53909599, -160.56676490
425, 85.28690312, 46.42162170, -133.89931371
426, -95.53048081, 12.17206068, -136.94008492
427, 18.32302627, 45.86038732, -196.95453745
428, 15.74763443, 30.92065214, -203.78659436
429, -33.22358637, 89.99530598, -138.23186516
430, 82.77387507, -48.37086761, -138.43843829
431, 57.94257915, -41.40002188, -180.20467014
432, -27.75233769, 0.39871722, -206.07106108
433, -26.70308525, 8.57983344, -205.98610158
434, -3.16471790, 31.00088982, -205.02067875
435, 4.63453653, 22.88103073, -207.23671891
436, -38.97266761, -88.57186062, -135.22214674
437, -49.68190943, -69.03686267, -162.58915733
438, 31.42243451, 91.29598831, -136.03215567
439, -73.40026570, -10.05253689, -177.16656532
440, -85.95957108, -3.61339007, -160.96955515
441, -34.85655143, 32.13130657, -198.04884985
442, 53.75601213, 66.02867705, -162.44525685
443, 41.98639650, -42.73011688, -190.07046659
444, 74.62076775, -41.23393666, -162.26378753
445, -16.82008737, 75.49402495, -173.38562028
446, 33.70097728, 36.41682608, -196.82199554
447, 7.02285447, -72.59534209, -178.41488012
448, -62.25079501, 51.35549488, -169.05464983
449, -72.03777033, 55.28041211, -151.88837170
450, 37.45329338, -29.74182916, -197.82183335
451, -13.13995917, 0.00000000, -209.13294847
452, 17.02977222, 87.76745154, -154.79800563
453, 20.16336785, 14.49589491, -206.86747456
454, -24.58847068, 38.19579763, -199.08696960
455, -67.27751641, -58.66154926, -155.08390427
456, -77.99180495, -57.12889452, -135.56497158
457, 4.47840826, -27.36501348, -206.07861311
458, -3.83163840, -27.95108331, -205.93776883
459, -11.06222288, -31.68893729, -204.19893034
460, -13.03148968, -43.95846571, -198.86975621
461, 2.73502136, 14.87540715, -208.84959241
462, 2.92391599, -12.81051296, -209.13294847
463, -22.25308086, -27.11955751, -203.64470083
464, -14.77659203, 32.91742547, -203.26358040
465, -57.00124331, -55.52290914, -170.56455086
466, -16.38769678, 88.28916608, -154.00530135
467, -80.94830758, 54.90324684, -130.80877185
468, 95.62532299, 21.32484770, -130.02619469
469, 95.62532299, -21.32484770, -130.02619469
470, -77.65803751, 6.09509376, -172.70629189
471, -27.25313329, -17.97976251, -204.51981203
472, 38.17548429, 24.76331345, -199.04723862
473, -7.66251712, 36.71137535, -202.70146035
474, -45.82568116, 78.99957125, -150.73174055
475, 59.59773907, 37.86429027, -180.81246374
476, 37.45151768, -18.39388137, -200.87930981
477, -88.65338157, -41.76812143, -129.89979821
478, 44.56501610, -81.41593385, -147.22102975
*ELEMENT, TYPE=S3
1, 1, 175, 5
2, 5, 326, 1
3, 1, 21, 173
4, 21, 1, 325
5, 27, 1, 173
6, 1, 27, 175
7, 45, 325, 1
8, 45, 1, 326
9, 22, 174, 2
10, 2, 176, 22
11, 2, 28, 176
12, 2, 468, 28
13, 44, 2, 174
14, 2, 44, 469
15, 2, 58, 468
16, 2, 469, 58
17, 3, 48, 211
18, 213, 48, 3
19, 49, 3, 211
20, 3, 54, 213
21, 55, 4, 355
22, 4, 55, 357
23, 59, 355, 4
24, 64, 4, 357
25, 6, 5, 155
26, 5, 6, 269
27, 155, 5, 175
28, 269, 326, 5
29, 7, 6, 74
30, 6, 7, 206
31, 155, 74, 6
32, 269, 6, 206
33, 8, 7, 137
34, 7, 8, 297
35, 137, 7, 74
36, 206, 7, 297
37, 9, 8, 70
38, 8, 9, 204
39, 8, 137, 70
40, 8, 204, 297
41, 10, 9, 133
42, 9, 10, 286
43, 9, 70, 133
44, 9, 286, 204
45, 11, 10, 166
46, 10, 11, 197
47, 10, 133, 166
48, 10, 197, 286
49, 11, 78, 12
50, 12, 324, 11
51, 78, 11, 166
52, 197, 11, 324
53, 13, 12, 164
54, 12, 13, 282
55, 78, 164, 12
56, 12, 282, 279
57, 324, 12, 279
58, 13, 71, 14
59, 14, 202, 13
60, 13, 164, 71
61, 282, 13, 202
62, 15, 14, 147
63, 14, 15, 332
64, 14, 71, 147
65, 202, 14, 332
66, 16, 15, 79
67, 15, 16, 192
68, 79, 15, 147
69, 15, 192, 311
70, 332, 15, 311
71, 17, 16, 145
72, 16, 17, 293
73, 145, 16, 79
74, 192, 16, 293
75, 18, 17, 68
76, 17, 18, 203
77, 68, 17, 145
78, 17, 203, 293
79, 18, 142, 19
80, 18, 19, 267
81, 142, 18, 68
82, 203, 18, 267
83, 20, 19, 76
84, 19, 20, 205
85, 142, 76, 19
86, 205, 333, 19
87, 333, 267, 19
88, 21, 20, 157
89, 20, 21, 285
90, 20, 76, 157
91, 205, 20, 285
92, 21, 157, 173
93, 21, 325, 285
94, 80, 23, 22
95, 22, 23, 82
96, 176, 80, 22
97, 174, 22, 82
98, 23, 84, 24
99, 24, 136, 23
100, 80, 84, 23
101, 23, 136, 82
102, 24, 25, 65
103, 25, 24, 66
104, 65, 136, 24
105, 84, 66, 24
106, 26, 25, 134
107, 25, 26, 135
108, 135, 65, 25
109, 134, 25, 66
110, 27, 26, 81
111, 27, 83, 26
112, 81, 26, 134
113, 26, 83, 135
114, 81, 175, 27
115, 173, 83, 27
116, 29, 154, 28
117, 28, 425, 29
118, 176, 28, 154
119, 468, 425, 28
120, 30, 75, 29
121, 29, 349, 30
122, 29, 75, 154
123, 349, 29, 425
124, 31, 141, 30
125, 30, 438, 31
126, 141, 75, 30
127, 30, 349, 438
128, 31, 32, 73
129, 32, 31, 347
130, 31, 73, 141
131, 31, 438, 347
132, 32, 33, 179
133, 33, 32, 429
134, 73, 32, 179
135, 429, 32, 347
136, 33, 34, 165
137, 34, 33, 341
138, 123, 33, 165
139, 179, 33, 123
140, 33, 429, 341
141, 35, 69, 34
142, 34, 467, 35
143, 34, 69, 165
144, 34, 341, 467
145, 35, 36, 167
146, 36, 35, 426
147, 69, 35, 167
148, 35, 421, 426
149, 421, 35, 467
150, 37, 125, 36
151, 36, 346, 37
152, 125, 167, 36
153, 36, 426, 346
154, 37, 38, 67
155, 37, 477, 38
156, 37, 67, 125
157, 37, 346, 477
158, 38, 39, 152
159, 39, 38, 336
160, 152, 67, 38
161, 38, 456, 336
162, 456, 38, 477
163, 40, 146, 39
164, 40, 39, 436
165, 152, 39, 146
166, 436, 39, 336
167, 72, 40, 41
168, 40, 348, 41
169, 72, 146, 40
170, 348, 40, 436
171, 41, 42, 143
172, 42, 41, 412
173, 72, 41, 143
174, 348, 412, 41
175, 43, 77, 42
176, 42, 350, 43
177, 42, 77, 143
178, 350, 42, 478
179, 478, 42, 412
180, 43, 44, 156
181, 430, 44, 43
182, 77, 43, 156
183, 430, 43, 350
184, 44, 174, 156
185, 44, 430, 469
186, 46, 207, 45
187, 45, 208, 46
188, 45, 207, 325
189, 208, 45, 326
190, 47, 46, 259
191, 46, 47, 275
192, 46, 275, 207
193, 259, 46, 208
194, 47, 190, 48
195, 47, 48, 191
196, 259, 190, 47
197, 191, 275, 47
198, 48, 190, 329
199, 331, 191, 48
200, 211, 48, 309
201, 48, 213, 331
202, 329, 309, 48
203, 211, 212, 49
204, 212, 316, 49
205, 50, 198, 51
206, 198, 50, 200
207, 50, 316, 200
208, 201, 51, 198
209, 199, 51, 201
210, 51, 199, 306
211, 193, 53, 52
212, 196, 193, 52
213, 196, 52, 194
214, 194, 52, 306
215, 195, 53, 193
216, 53, 195, 315
217, 214, 213, 54
218, 315, 214, 54
219, 56, 55, 334
220, 55, 56, 335
221, 334, 55, 472
222, 335, 476, 55
223, 355, 453, 55
224, 357, 55, 476
225, 453, 472, 55
226, 57, 56, 409
227, 56, 57, 417
228, 56, 334, 409
229, 417, 335, 56
230, 58, 57, 351
231, 57, 58, 352
232, 57, 409, 351
233, 57, 352, 417
234, 468, 58, 351
235, 58, 469, 352
236, 355, 59, 356
237, 356, 59, 461
238, 60, 61, 342
239, 342, 344, 60
240, 60, 344, 461
241, 61, 345, 342
242, 61, 343, 345
243, 61, 451, 343
244, 62, 63, 337
245, 340, 62, 337
246, 338, 62, 340
247, 338, 451, 62
248, 337, 63, 339
249, 462, 339, 63
250, 358, 64, 357
251, 462, 64, 358
252, 186, 65, 135
253, 136, 65, 182
254, 186, 182, 65
255, 84, 85, 66
256, 86, 66, 85
257, 134, 66, 86
258, 67, 158, 125
259, 171, 67, 152
260, 171, 158, 67
261, 142, 68, 144
262, 68, 180, 144
263, 180, 68, 145
264, 69, 100, 99
265, 69, 99, 165
266, 69, 124, 100
267, 69, 167, 124
268, 133, 70, 160
269, 137, 138, 70
270, 160, 70, 138
271, 131, 71, 122
272, 164, 122, 71
273, 131, 162, 71
274, 71, 162, 147
275, 161, 72, 143
276, 146, 72, 177
277, 72, 161, 177
278, 172, 141, 73
279, 73, 151, 172
280, 73, 179, 151
281, 137, 74, 139
282, 140, 139, 74
283, 155, 140, 74
284, 141, 159, 75
285, 154, 75, 184
286, 184, 75, 159
287, 76, 142, 149
288, 149, 178, 76
289, 178, 157, 76
290, 77, 187, 143
291, 77, 169, 150
292, 187, 77, 150
293, 169, 77, 156
294, 78, 121, 122
295, 78, 129, 121
296, 164, 78, 122
297, 129, 78, 166
298, 145, 79, 163
299, 148, 79, 147
300, 79, 148, 163
301, 84, 80, 153
302, 153, 80, 154
303, 176, 154, 80
304, 183, 81, 134
305, 81, 155, 175
306, 155, 81, 183
307, 82, 136, 181
308, 174, 82, 156
309, 82, 181, 156
310, 135, 83, 188
311, 173, 157, 83
312, 188, 83, 157
313, 84, 153, 85
314, 86, 85, 87
315, 87, 85, 88
316, 85, 153, 88
317, 87, 168, 86
318, 134, 86, 183
319, 86, 168, 140
320, 86, 140, 183
321, 89, 87, 88
322, 89, 90, 87
323, 87, 90, 168
324, 88, 159, 89
325, 88, 153, 184
326, 184, 159, 88
327, 90, 89, 91
328, 92, 91, 89
329, 159, 92, 89
330, 90, 91, 185
331, 139, 90, 138
332, 185, 138, 90
333, 168, 90, 139
334, 93, 91, 92
335, 94, 91, 93
336, 91, 94, 185
337, 92, 151, 93
338, 172, 151, 92
339, 159, 172, 92
340, 94, 93, 95
341, 96, 95, 93
342, 96, 93, 151
343, 98, 94, 95
344, 98, 160, 94
345, 94, 160, 185
346, 97, 95, 96
347, 97, 132, 95
348, 132, 98, 95
349, 99, 97, 96
350, 99, 96, 123
351, 123, 96, 151
352, 97, 99, 100
353, 100, 101, 97
354, 97, 101, 132
355, 98, 132, 129
356, 129, 133, 98
357, 160, 98, 133
358, 99, 123, 165
359, 102, 101, 100
360, 124, 102, 100
361, 102, 103, 101
362, 103, 121, 101
363, 101, 121, 132
364, 102, 104, 103
365, 102, 105, 104
366, 102, 124, 105
367, 103, 104, 131
368, 121, 103, 122
369, 122, 103, 131
370, 104, 105, 106
371, 106, 107, 104
372, 107, 131, 104
373, 105, 158, 106
374, 124, 125, 105
375, 158, 105, 125
376, 106, 108, 107
377, 109, 108, 106
378, 106, 158, 109
379, 108, 189, 107
380, 107, 162, 131
381, 189, 162, 107
382, 109, 110, 108
383, 110, 111, 108
384, 189, 108, 111
385, 109, 113, 110
386, 171, 113, 109
387, 171, 109, 158
388, 111, 110, 112
389, 110, 130, 112
390, 113, 130, 110
391, 111, 112, 114
392, 163, 111, 114
393, 111, 163, 148
394, 189, 111, 148
395, 114, 112, 115
396, 115, 112, 116
397, 112, 130, 116
398, 130, 113, 177
399, 152, 146, 113
400, 113, 146, 177
401, 113, 171, 152
402, 180, 114, 115
403, 114, 145, 163
404, 114, 180, 145
405, 117, 115, 116
406, 170, 115, 117
407, 144, 115, 170
408, 144, 180, 115
409, 117, 116, 118
410, 116, 161, 118
411, 116, 130, 161
412, 118, 119, 117
413, 120, 117, 119
414, 170, 117, 120
415, 118, 150, 119
416, 187, 150, 118
417, 161, 187, 118
418, 126, 120, 119
419, 119, 127, 126
420, 150, 127, 119
421, 128, 120, 126
422, 149, 120, 128
423, 149, 170, 120
424, 121, 129, 132
425, 123, 151, 179
426, 125, 124, 167
427, 182, 126, 127
428, 186, 128, 126
429, 182, 186, 126
430, 127, 150, 169
431, 181, 127, 169
432, 181, 182, 127
433, 178, 149, 128
434, 188, 178, 128
435, 186, 188, 128
436, 129, 166, 133
437, 161, 130, 177
438, 188, 186, 135
439, 136, 182, 181
440, 139, 138, 137
441, 160, 138, 185
442, 140, 168, 139
443, 183, 140, 155
444, 172, 159, 141
445, 142, 144, 149
446, 161, 143, 187
447, 144, 170, 149
448, 148, 147, 162
449, 189, 148, 162
450, 153, 154, 184
451, 181, 169, 156
452, 188, 157, 178
453, 190, 257, 256
454, 302, 190, 256
455, 259, 257, 190
456, 329, 190, 302
457, 191, 287, 275
458, 300, 287, 191
459, 312, 300, 191
460, 331, 312, 191
461, 293, 294, 192
462, 310, 192, 294
463, 310, 311, 192
464, 195, 193, 262
465, 193, 196, 262
466, 328, 196, 194
467, 199, 289, 194
468, 194, 306, 199
469, 289, 276, 194
470, 276, 328, 194
471, 214, 195, 313
472, 214, 315, 195
473, 314, 195, 262
474, 314, 313, 195
475, 317, 262, 196
476, 328, 317, 196
477, 305, 277, 197
478, 277, 330, 197
479, 330, 286, 197
480, 305, 197, 324
481, 200, 249, 198
482, 249, 201, 198
483, 199, 201, 290
484, 199, 290, 289
485, 200, 212, 292
486, 200, 316, 212
487, 291, 249, 200
488, 200, 292, 291
489, 201, 249, 252
490, 201, 252, 253
491, 253, 290, 201
492, 271, 202, 272
493, 296, 202, 271
494, 272, 202, 332
495, 296, 282, 202
496, 203, 263, 264
497, 266, 263, 203
498, 293, 203, 264
499, 266, 203, 267
500, 204, 281, 307
501, 323, 281, 204
502, 286, 323, 204
503, 307, 297, 204
504, 273, 205, 285
505, 205, 273, 333
506, 268, 269, 206
507, 298, 268, 206
508, 270, 206, 297
509, 206, 270, 298
510, 275, 288, 207
511, 285, 207, 288
512, 285, 325, 207
513, 268, 259, 208
514, 208, 269, 268
515, 269, 208, 326
516, 213, 214, 209
517, 209, 331, 213
518, 214, 215, 209
519, 215, 216, 209
520, 209, 216, 312
521, 209, 312, 331
522, 284, 210, 302
523, 210, 284, 309
524, 210, 329, 302
525, 329, 210, 309
526, 309, 212, 211
527, 292, 212, 284
528, 212, 309, 284
529, 214, 313, 215
530, 216, 215, 217
531, 217, 215, 254
532, 313, 254, 215
533, 217, 218, 216
534, 300, 216, 218
535, 216, 300, 312
536, 219, 218, 217
537, 217, 220, 219
538, 254, 220, 217
539, 223, 218, 219
540, 218, 223, 231
541, 218, 231, 300
542, 220, 221, 219
543, 219, 221, 303
544, 303, 223, 219
545, 221, 220, 222
546, 320, 222, 220
547, 319, 220, 254
548, 320, 220, 319
549, 222, 224, 221
550, 224, 263, 221
551, 263, 303, 221
552, 224, 222, 225
553, 222, 226, 225
554, 222, 320, 226
555, 223, 265, 231
556, 265, 223, 266
557, 223, 303, 266
558, 225, 294, 224
559, 224, 264, 263
560, 264, 224, 294
561, 227, 225, 226
562, 225, 227, 322
563, 225, 322, 294
564, 227, 226, 228
565, 228, 226, 260
566, 226, 261, 260
567, 226, 320, 261
568, 229, 227, 228
569, 229, 250, 227
570, 250, 322, 227
571, 229, 228, 230
572, 230, 228, 232
573, 228, 260, 232
574, 230, 295, 229
575, 229, 271, 250
576, 295, 271, 229
577, 232, 233, 230
578, 230, 233, 234
579, 234, 295, 230
580, 231, 265, 273
581, 231, 273, 287
582, 231, 287, 300
583, 274, 233, 232
584, 260, 328, 232
585, 274, 232, 276
586, 276, 232, 328
587, 233, 235, 234
588, 233, 280, 235
589, 274, 280, 233
590, 236, 234, 235
591, 236, 327, 234
592, 234, 327, 295
593, 235, 237, 236
594, 235, 238, 237
595, 280, 238, 235
596, 243, 236, 237
597, 243, 258, 236
598, 258, 327, 236
599, 238, 239, 237
600, 239, 304, 237
601, 243, 237, 304
602, 238, 240, 239
603, 240, 238, 299
604, 299, 238, 280
605, 239, 240, 241
606, 277, 239, 241
607, 239, 277, 304
608, 240, 242, 241
609, 240, 244, 242
610, 244, 240, 308
611, 299, 308, 240
612, 301, 241, 242
613, 278, 277, 241
614, 301, 278, 241
615, 244, 245, 242
616, 245, 246, 242
617, 242, 246, 301
618, 279, 258, 243
619, 243, 305, 279
620, 243, 304, 305
621, 244, 255, 245
622, 244, 321, 255
623, 321, 244, 308
624, 247, 246, 245
625, 245, 283, 247
626, 255, 283, 245
627, 247, 248, 246
628, 246, 248, 281
629, 281, 301, 246
630, 247, 251, 248
631, 256, 251, 247
632, 283, 256, 247
633, 251, 270, 248
634, 307, 248, 270
635, 281, 248, 307
636, 249, 321, 252
637, 249, 291, 321
638, 250, 271, 272
639, 250, 272, 310
640, 250, 310, 322
641, 251, 256, 257
642, 298, 251, 257
643, 251, 298, 270
644, 252, 299, 253
645, 299, 252, 308
646, 321, 308, 252
647, 280, 274, 253
648, 290, 253, 274
649, 280, 253, 299
650, 313, 314, 254
651, 314, 319, 254
652, 284, 283, 255
653, 291, 284, 255
654, 291, 255, 321
655, 283, 302, 256
656, 259, 268, 257
657, 268, 298, 257
658, 279, 282, 258
659, 258, 282, 296
660, 327, 258, 296
661, 317, 260, 261
662, 328, 260, 317
663, 318, 317, 261
664, 261, 319, 318
665, 320, 319, 261
666, 314, 262, 318
667, 317, 318, 262
668, 266, 303, 263
669, 264, 294, 293
670, 266, 333, 265
671, 265, 333, 273
672, 266, 267, 333
673, 307, 270, 297
674, 296, 271, 295
675, 272, 311, 310
676, 332, 311, 272
677, 273, 285, 288
678, 287, 273, 288
679, 274, 276, 289
680, 290, 274, 289
681, 287, 288, 275
682, 330, 277, 278
683, 277, 305, 304
684, 323, 286, 278
685, 278, 286, 330
686, 323, 278, 301
687, 305, 324, 279
688, 323, 301, 281
689, 283, 284, 302
690, 291, 292, 284
691, 322, 310, 294
692, 296, 295, 327
693, 318, 319, 314
694, 446, 400, 334
695, 334, 400, 475
696, 409, 334, 475
697, 472, 446, 334
698, 335, 417, 431
699, 431, 443, 335
700, 443, 450, 335
701, 476, 335, 450
702, 436, 336, 437
703, 336, 455, 437
704, 456, 455, 336
705, 405, 337, 339
706, 340, 337, 405
707, 471, 338, 340
708, 432, 343, 338
709, 343, 451, 338
710, 420, 432, 338
711, 471, 420, 338
712, 339, 358, 457
713, 358, 339, 462
714, 458, 405, 339
715, 339, 457, 458
716, 340, 405, 463
717, 463, 471, 340
718, 449, 341, 418
719, 418, 341, 474
720, 429, 474, 341
721, 341, 449, 467
722, 393, 344, 342
723, 342, 345, 393
724, 433, 345, 343
725, 433, 343, 432
726, 393, 434, 344
727, 344, 434, 435
728, 344, 435, 461
729, 345, 396, 393
730, 345, 397, 396
731, 397, 345, 433
732, 346, 413, 414
733, 346, 440, 413
734, 477, 346, 414
735, 426, 440, 346
736, 452, 422, 347
737, 422, 466, 347
738, 466, 429, 347
739, 452, 347, 438
740, 406, 348, 407
741, 411, 348, 406
742, 436, 407, 348
743, 348, 411, 412
744, 438, 349, 410
745, 442, 410, 349
746, 349, 425, 424
747, 442, 349, 424
748, 350, 415, 430
749, 350, 478, 415
750, 409, 424, 351
751, 351, 424, 425
752, 468, 351, 425
753, 444, 417, 352
754, 430, 444, 352
755, 430, 352, 469
756, 358, 357, 353
757, 353, 357, 476
758, 353, 359, 358
759, 359, 353, 360
760, 450, 360, 353
761, 353, 476, 450
762, 428, 446, 354
763, 453, 428, 354
764, 354, 446, 472
765, 472, 453, 354
766, 453, 355, 356
767, 435, 428, 356
768, 453, 356, 428
769, 461, 435, 356
770, 358, 359, 457
771, 361, 359, 360
772, 361, 398, 359
773, 359, 398, 457
774, 360, 362, 361
775, 360, 443, 362
776, 450, 443, 360
777, 363, 361, 362
778, 364, 361, 363
779, 364, 398, 361
780, 367, 363, 362
781, 362, 375, 367
782, 362, 443, 375
783, 365, 364, 363
784, 447, 365, 363
785, 363, 367, 447
786, 365, 366, 364
787, 460, 364, 366
788, 398, 364, 460
789, 365, 368, 366
790, 365, 406, 368
791, 406, 365, 447
792, 368, 369, 366
793, 369, 370, 366
794, 366, 370, 404
795, 460, 366, 404
796, 367, 375, 408
797, 367, 408, 411
798, 367, 411, 447
799, 368, 437, 369
800, 407, 368, 406
801, 407, 437, 368
802, 370, 369, 371
803, 369, 465, 371
804, 465, 369, 437
805, 370, 371, 372
806, 403, 370, 372
807, 370, 403, 404
808, 372, 371, 373
809, 371, 395, 373
810, 371, 465, 395
811, 372, 373, 374
812, 372, 374, 376
813, 376, 403, 372
814, 373, 439, 374
815, 373, 395, 413
816, 439, 373, 413
817, 374, 377, 376
818, 374, 378, 377
819, 378, 374, 439
820, 375, 415, 408
821, 375, 431, 415
822, 431, 375, 443
823, 377, 416, 376
824, 403, 376, 471
825, 416, 420, 376
826, 376, 420, 471
827, 378, 379, 377
828, 423, 377, 379
829, 416, 377, 423
830, 380, 379, 378
831, 470, 380, 378
832, 378, 439, 470
833, 380, 381, 379
834, 381, 382, 379
835, 423, 379, 382
836, 387, 381, 380
837, 402, 387, 380
838, 470, 402, 380
839, 381, 383, 382
840, 383, 381, 448
841, 381, 387, 448
842, 382, 383, 384
843, 382, 384, 441
844, 382, 441, 423
845, 385, 384, 383
846, 385, 383, 418
847, 418, 383, 448
848, 385, 386, 384
849, 388, 384, 386
850, 388, 454, 384
851, 441, 384, 454
852, 386, 385, 445
853, 419, 385, 418
854, 385, 419, 445
855, 386, 389, 388
856, 386, 390, 389
857, 386, 445, 390
858, 421, 387, 402
859, 387, 421, 449
860, 387, 449, 448
861, 389, 399, 388
862, 473, 388, 399
863, 454, 388, 464
864, 473, 464, 388
865, 390, 391, 389
866, 391, 427, 389
867, 399, 389, 427
868, 392, 391, 390
869, 390, 422, 392
870, 422, 390, 445
871, 392, 394, 391
872, 391, 394, 400
873, 427, 391, 400
874, 394, 392, 410
875, 392, 452, 410
876, 422, 452, 392
877, 464, 393, 396
878, 434, 393, 464
879, 400, 394, 401
880, 442, 401, 394
881, 410, 442, 394
882, 395, 414, 413
883, 414, 395, 455
884, 465, 455, 395
885, 396, 397, 441
886, 454, 396, 441
887, 454, 464, 396
888, 416, 423, 397
889, 433, 416, 397
890, 397, 423, 441
891, 398, 458, 457
892, 459, 458, 398
893, 398, 460, 459
894, 427, 428, 399
895, 428, 434, 399
896, 434, 473, 399
897, 400, 401, 475
898, 446, 427, 400
899, 401, 442, 424
900, 424, 475, 401
901, 421, 402, 426
902, 440, 426, 402
903, 470, 440, 402
904, 463, 404, 403
905, 403, 471, 463
906, 404, 459, 460
907, 463, 459, 404
908, 458, 459, 405
909, 459, 463, 405
910, 411, 406, 447
911, 436, 437, 407
912, 478, 411, 408
913, 478, 408, 415
914, 409, 475, 424
915, 438, 410, 452
916, 411, 478, 412
917, 440, 439, 413
918, 455, 456, 414
919, 456, 477, 414
920, 444, 430, 415
921, 431, 444, 415
922, 420, 416, 432
923, 416, 433, 432
924, 431, 417, 444
925, 474, 419, 418
926, 418, 448, 449
927, 429, 466, 419
928, 474, 429, 419
929, 419, 466, 445
930, 421, 467, 449
931, 445, 466, 422
932, 427, 446, 428
933, 434, 428, 435
934, 473, 434, 464
935, 455, 465, 437
936, 470, 439, 440
*MATERIAL, NAME=CFRP
*ELASTIC, TYPE=ENGINEERING CONSTANTS
136101.000000, 1442.000000, 1442.000000, 0.954000, 0.010000, 0.010000, 8685.000000, 8685.000000, 8685.000000
** SOURCE_TET=1031
*ELSET, ELSET=ELEM_1
1
*ORIENTATION, NAME=ORI_1, SYSTEM=RECTANGULAR
97.00534919, 19.81130216, 101.80887768, 96.90927643, 19.86947572, 103.21862442
3, 0.
*SHELL SECTION, ELSET=ELEM_1, COMPOSITE, ORIENTATION=ORI_1
1.20111954, 3, CFRP, 0.
** SOURCE_TET=1168
*ELSET, ELSET=ELEM_2
2
*ORIENTATION, NAME=ORI_2, SYSTEM=RECTANGULAR
96.41681467, 19.35309719, 115.82877960, 96.36355674, 19.42067308, 117.24037341
3, 0.
*SHELL SECTION, ELSET=ELEM_2, COMPOSITE, ORIENTATION=ORI_2
1.20113993, 3, CFRP, 0.
** SOURCE_TET=1032
*ELSET, ELSET=ELEM_3
3
*ORIENTATION, NAME=ORI_3, SYSTEM=RECTANGULAR
97.23786724, -18.49230746, 101.80980258, 97.16713963, -18.40670677, 103.21965013
3, 0.
*SHELL SECTION, ELSET=ELEM_3, COMPOSITE, ORIENTATION=ORI_3
1.20111954, 3, CFRP, 0.
** SOURCE_TET=1221
*ELSET, ELSET=ELEM_4
4
*ORIENTATION, NAME=ORI_4, SYSTEM=RECTANGULAR
96.66995414, -17.85303928, 115.93336443, 96.64050957, -17.77434548, 117.34507980
3, 0.
*SHELL SECTION, ELSET=ELEM_4, COMPOSITE, ORIENTATION=ORI_4
1.20114005, 3, CFRP, 0.
** SOURCE_TET=1088
*ELSET, ELSET=ELEM_5
5
*ORIENTATION, NAME=ORI_5, SYSTEM=RECTANGULAR
99.16618910, -7.07999845, 91.33077935, 99.17498334, -7.00532538, 92.74299272
3, 0.
*SHELL SECTION, ELSET=ELEM_5, COMPOSITE, ORIENTATION=ORI_5
1.20110416, 3, CFRP, 0.
** SOURCE_TET=1089
*ELSET, ELSET=ELEM_6
6
*ORIENTATION, NAME=ORI_6, SYSTEM=RECTANGULAR
99.00980859, 8.40784593, 91.33077935, 99.00101435, 8.48251900, 92.74299272
3, 0.
*SHELL SECTION, ELSET=ELEM_6, COMPOSITE, ORIENTATION=ORI_6
1.20110416, 3, CFRP, 0.
** SOURCE_TET=1794
*ELSET, ELSET=ELEM_7
7
*ORIENTATION, NAME=ORI_7, SYSTEM=RECTANGULAR
97.26275093, -6.44666792, 125.60465676, 97.06141875, -6.36127693, 127.00185887
3, 0.
*SHELL SECTION, ELSET=ELEM_7, COMPOSITE, ORIENTATION=ORI_7
1.20115399, 3, CFRP, 0.
** SOURCE_TET=1652
*ELSET, ELSET=ELEM_8
8
*ORIENTATION, NAME=ORI_8, SYSTEM=RECTANGULAR
97.15292730, 7.96454265, 125.49970551, 96.94171292, 8.02633748, 126.89669151
3, 0.
*SHELL SECTION, ELSET=ELEM_8, COMPOSITE, ORIENTATION=ORI_8
1.20115387, 3, CFRP, 0.
** SOURCE_TET=1155
*ELSET, ELSET=ELEM_9
9
*ORIENTATION, NAME=ORI_9, SYSTEM=RECTANGULAR
99.16618910, -7.07999842, -92.81818183, 99.17498333, -7.00532541, -91.40596846
3, 0.
*SHELL SECTION, ELSET=ELEM_9, COMPOSITE, ORIENTATION=ORI_9
1.20110428, 3, CFRP, 0.
** SOURCE_TET=1156
*ELSET, ELSET=ELEM_10
10
*ORIENTATION, NAME=ORI_10, SYSTEM=RECTANGULAR
99.00980859, 8.40784597, -92.81818183, 99.00101435, 8.48251898, -91.40596846
3, 0.
*SHELL SECTION, ELSET=ELEM_10, COMPOSITE, ORIENTATION=ORI_10
1.20110428, 3, CFRP, 0.
** SOURCE_TET=1093
*ELSET, ELSET=ELEM_11
11
*ORIENTATION, NAME=ORI_11, SYSTEM=RECTANGULAR
96.91763850, 19.79687981, -103.29153958, 96.98836611, 19.88248051, -101.88169203
3, 0.
*SHELL SECTION, ELSET=ELEM_11, COMPOSITE, ORIENTATION=ORI_11
1.20111954, 3, CFRP, 0.
** SOURCE_TET=1206
*ELSET, ELSET=ELEM_12
12
*ORIENTATION, NAME=ORI_12, SYSTEM=RECTANGULAR
96.39310258, 19.16486868, -117.41743209, 96.42254713, 19.24356259, -116.00571672
3, 0.
*SHELL SECTION, ELSET=ELEM_12, COMPOSITE, ORIENTATION=ORI_12
1.20114017, 3, CFRP, 0.
** SOURCE_TET=1094
*ELSET, ELSET=ELEM_13
13
*ORIENTATION, NAME=ORI_13, SYSTEM=RECTANGULAR
97.15015655, -18.47788511, -103.29246448, 97.24622931, -18.41971156, -101.88271774
3, 0.
*SHELL SECTION, ELSET=ELEM_13, COMPOSITE, ORIENTATION=ORI_13
1.20111954, 3, CFRP, 0.
** SOURCE_TET=1336
*ELSET, ELSET=ELEM_14
14
*ORIENTATION, NAME=ORI_14, SYSTEM=RECTANGULAR
96.62540932, -17.84709684, -117.41912631, 96.68060876, -17.77969485, -116.00759877
3, 0.
*SHELL SECTION, ELSET=ELEM_14, COMPOSITE, ORIENTATION=ORI_14
1.20114017, 3, CFRP, 0.
** SOURCE_TET=1753
*ELSET, ELSET=ELEM_15
15
*ORIENTATION, NAME=ORI_15, SYSTEM=RECTANGULAR
96.95786087, 7.76989727, -127.07302529, 97.15919305, 7.85528815, -125.67582317
3, 0.
*SHELL SECTION, ELSET=ELEM_15, COMPOSITE, ORIENTATION=ORI_15
1.20115411, 3, CFRP, 0.
** SOURCE_TET=1863
*ELSET, ELSET=ELEM_16
16
*ORIENTATION, NAME=ORI_16, SYSTEM=RECTANGULAR
97.04577084, -6.43443057, -127.07488365, 97.25681415, -6.37229694, -125.67788683
3, 0.
*SHELL SECTION, ELSET=ELEM_16, COMPOSITE, ORIENTATION=ORI_16
1.20115411, 3, CFRP, 0.
** SOURCE_TET=2546
*ELSET, ELSET=ELEM_17
17
*ORIENTATION, NAME=ORI_17, SYSTEM=RECTANGULAR
22.84817269, 3.55225799, 206.48185503, 21.47784758, 3.47504817, 206.82280626
3, 0.
*SHELL SECTION, ELSET=ELEM_17, COMPOSITE, ORIENTATION=ORI_17
1.20362222, 3, CFRP, 0.
** SOURCE_TET=2680
*ELSET, ELSET=ELEM_18
18
*ORIENTATION, NAME=ORI_18, SYSTEM=RECTANGULAR
24.17861829, -2.87143814, 206.06642617, 22.82640910, -2.61912853, 206.39486213
3, 0.
*SHELL SECTION, ELSET=ELEM_18, COMPOSITE, ORIENTATION=ORI_18
1.20362222, 3, CFRP, 0.
** SOURCE_TET=2488
*ELSET, ELSET=ELEM_19
19
*ORIENTATION, NAME=ORI_19, SYSTEM=RECTANGULAR
11.84131102, 6.33504303, 208.88899494, 10.54558426, 5.80244303, 209.08246173
3, 0.
*SHELL SECTION, ELSET=ELEM_19, COMPOSITE, ORIENTATION=ORI_19
1.20362222, 3, CFRP, 0.
** SOURCE_TET=1870
*ELSET, ELSET=ELEM_20
20
*ORIENTATION, NAME=ORI_20, SYSTEM=RECTANGULAR
13.61204192, -5.75899970, 208.56695992, 12.38619434, -5.09094266, 208.79278618
3, 0.
*SHELL SECTION, ELSET=ELEM_20, COMPOSITE, ORIENTATION=ORI_20
1.20362222, 3, CFRP, 0.
** SOURCE_TET=305
*ELSET, ELSET=ELEM_21
21
*ORIENTATION, NAME=ORI_21, SYSTEM=RECTANGULAR
21.03651015, 3.19602257, -206.91108510, 22.37427442, 3.52741151, -206.59396031
3, 0.
*SHELL SECTION, ELSET=ELEM_21, COMPOSITE, ORIENTATION=ORI_21
1.20362008, 3, CFRP, 0.
** SOURCE_TET=2521
*ELSET, ELSET=ELEM_22
22
*ORIENTATION, NAME=ORI_22, SYSTEM=RECTANGULAR
22.57324604, -2.65071885, -206.46041529, 23.94215597, -2.75196649, -206.12007057
3, 0.
*SHELL SECTION, ELSET=ELEM_22, COMPOSITE, ORIENTATION=ORI_22
1.20362008, 3, CFRP, 0.
** SOURCE_TET=2497
*ELSET, ELSET=ELEM_23
23
*ORIENTATION, NAME=ORI_23, SYSTEM=RECTANGULAR
10.17647574, 5.56919193, -209.15931310, 11.40890061, 6.23781649, -208.97473211
3, 0.
*SHELL SECTION, ELSET=ELEM_23, COMPOSITE, ORIENTATION=ORI_23
1.20362008, 3, CFRP, 0.
** SOURCE_TET=2086
*ELSET, ELSET=ELEM_24
24
*ORIENTATION, NAME=ORI_24, SYSTEM=RECTANGULAR
12.11928366, -5.09056814, -208.84375945, 13.40800968, -5.62906169, -208.62192627
3, 0.
*SHELL SECTION, ELSET=ELEM_24, COMPOSITE, ORIENTATION=ORI_24
1.20362008, 3, CFRP, 0.
** SOURCE_TET=855
*ELSET, ELSET=ELEM_25
25
*ORIENTATION, NAME=ORI_25, SYSTEM=RECTANGULAR
85.07893080, 50.67651202, 99.62637414, 84.97836664, 50.70440656, 101.03673181
3, 0.
*SHELL SECTION, ELSET=ELEM_25, COMPOSITE, ORIENTATION=ORI_25
1.20111632, 3, CFRP, 0.
** SOURCE_TET=1428
*ELSET, ELSET=ELEM_26
26
*ORIENTATION, NAME=ORI_26, SYSTEM=RECTANGULAR
84.87356586, 49.17680752, 117.08710772, 84.76745872, 49.20553089, 118.49704255
3, 0.
*SHELL SECTION, ELSET=ELEM_26, COMPOSITE, ORIENTATION=ORI_26
1.20114172, 3, CFRP, 0.
** SOURCE_TET=1237
*ELSET, ELSET=ELEM_27
27
*ORIENTATION, NAME=ORI_27, SYSTEM=RECTANGULAR
92.03201310, 36.88121547, 92.07725092, 91.97659990, 37.18756724, 93.45677185
3, 0.
*SHELL SECTION, ELSET=ELEM_27, COMPOSITE, ORIENTATION=ORI_27
1.20150137, 3, CFRP, 0.
** SOURCE_TET=2346
*ELSET, ELSET=ELEM_28
28
*ORIENTATION, NAME=ORI_28, SYSTEM=RECTANGULAR
91.35252990, 35.10619341, 123.66807420, 91.12489838, 35.09805390, 125.06382405
3, 0.
*SHELL SECTION, ELSET=ELEM_28, COMPOSITE, ORIENTATION=ORI_28
1.20115113, 3, CFRP, 0.
** SOURCE_TET=434
*ELSET, ELSET=ELEM_29
29
*ORIENTATION, NAME=ORI_29, SYSTEM=RECTANGULAR
63.13947586, 76.28729630, 99.24479802, 63.03656575, 76.28052684, 100.65524607
3, 0.
*SHELL SECTION, ELSET=ELEM_29, COMPOSITE, ORIENTATION=ORI_29
1.20111573, 3, CFRP, 0.
** SOURCE_TET=438
*ELSET, ELSET=ELEM_30
30
*ORIENTATION, NAME=ORI_30, SYSTEM=RECTANGULAR
62.06179897, 75.31979385, 119.04383288, 61.91327689, 75.26390783, 120.44911504
3, 0.
*SHELL SECTION, ELSET=ELEM_30, COMPOSITE, ORIENTATION=ORI_30
1.20114458, 3, CFRP, 0.
** SOURCE_TET=893
*ELSET, ELSET=ELEM_31
31
*ORIENTATION, NAME=ORI_31, SYSTEM=RECTANGULAR
75.02254543, 64.69953328, 89.61417510, 75.02425927, 64.79662712, 91.02505067
3, 0.
*SHELL SECTION, ELSET=ELEM_31, COMPOSITE, ORIENTATION=ORI_31
1.20108807, 3, CFRP, 0.
** SOURCE_TET=20
*ELSET, ELSET=ELEM_32
32
*ORIENTATION, NAME=ORI_32, SYSTEM=RECTANGULAR
73.85214658, 62.32134661, 126.88504004, 73.59074868, 62.20274875, 128.26981645
3, 0.
*SHELL SECTION, ELSET=ELEM_32, COMPOSITE, ORIENTATION=ORI_32
1.20116770, 3, CFRP, 0.
** SOURCE_TET=267
*ELSET, ELSET=ELEM_33
33
*ORIENTATION, NAME=ORI_33, SYSTEM=RECTANGULAR
33.23996654, 93.28155938, 99.24626038, 33.14581290, 93.23990445, 100.65672128
3, 0.
*SHELL SECTION, ELSET=ELEM_33, COMPOSITE, ORIENTATION=ORI_33
1.20111573, 3, CFRP, 0.
** SOURCE_TET=363
*ELSET, ELSET=ELEM_34
34
*ORIENTATION, NAME=ORI_34, SYSTEM=RECTANGULAR
31.61901678, 92.69630897, 117.72563021, 31.51292267, 92.62619935, 119.13411474
3, 0.
*SHELL SECTION, ELSET=ELEM_34, COMPOSITE, ORIENTATION=ORI_34
1.20114267, 3, CFRP, 0.
** SOURCE_TET=61
*ELSET, ELSET=ELEM_35
35
*ORIENTATION, NAME=ORI_35, SYSTEM=RECTANGULAR
48.89497718, 86.02775112, 89.23415917, 48.86761400, 86.12592753, 90.64469547
3, 0.
*SHELL SECTION, ELSET=ELEM_35, COMPOSITE, ORIENTATION=ORI_35
1.20108700, 3, CFRP, 0.
** SOURCE_TET=155
*ELSET, ELSET=ELEM_36
36
*ORIENTATION, NAME=ORI_36, SYSTEM=RECTANGULAR
46.25653510, 84.58573514, 127.52107235, 46.04731956, 84.37847127, 128.90428258
3, 0.
*SHELL SECTION, ELSET=ELEM_36, COMPOSITE, ORIENTATION=ORI_36
1.20116985, 3, CFRP, 0.
** SOURCE_TET=327
*ELSET, ELSET=ELEM_37
37
*ORIENTATION, NAME=ORI_37, SYSTEM=RECTANGULAR
-0.66914258, 99.02472043, 99.24503029, -0.74313404, 98.95338407, 100.65550410
3, 0.
*SHELL SECTION, ELSET=ELEM_37, COMPOSITE, ORIENTATION=ORI_37
1.20111573, 3, CFRP, 0.
** SOURCE_TET=188
*ELSET, ELSET=ELEM_38
38
*ORIENTATION, NAME=ORI_38, SYSTEM=RECTANGULAR
-0.66769089, 97.53593233, 119.23292467, -0.74443863, 97.39217412, 120.63771767
3, 0.
*SHELL SECTION, ELSET=ELEM_38, COMPOSITE, ORIENTATION=ORI_38
1.20114481, 3, CFRP, 0.
** SOURCE_TET=87
*ELSET, ELSET=ELEM_39
39
*ORIENTATION, NAME=ORI_39, SYSTEM=RECTANGULAR
16.52299191, 97.56265302, 89.23417978, 16.46374502, 97.64554794, 90.64471805
3, 0.
*SHELL SECTION, ELSET=ELEM_39, COMPOSITE, ORIENTATION=ORI_39
1.20108700, 3, CFRP, 0.
** SOURCE_TET=1284
*ELSET, ELSET=ELEM_40
40
*ORIENTATION, NAME=ORI_40, SYSTEM=RECTANGULAR
14.92499731, 95.57958837, 127.70330765, 14.80291903, 95.34235051, 129.09212553
3, 0.
*SHELL SECTION, ELSET=ELEM_40, COMPOSITE, ORIENTATION=ORI_40
1.20117068, 3, CFRP, 0.
** SOURCE_TET=27
*ELSET, ELSET=ELEM_41
41
*ORIENTATION, NAME=ORI_41, SYSTEM=RECTANGULAR
-36.23919453, 92.12201082, 96.59676721, -36.29078226, 92.04942993, 98.00817456
3, 0.
*SHELL SECTION, ELSET=ELEM_41, COMPOSITE, ORIENTATION=ORI_41
1.20109916, 3, CFRP, 0.
** SOURCE_TET=170
*ELSET, ELSET=ELEM_42
42
*ORIENTATION, NAME=ORI_42, SYSTEM=RECTANGULAR
-34.14901117, 91.52699091, 118.70914940, -34.17646397, 91.38057527, 120.11549530
3, 0.
*SHELL SECTION, ELSET=ELEM_42, COMPOSITE, ORIENTATION=ORI_42
1.20114410, 3, CFRP, 0.
** SOURCE_TET=42
*ELSET, ELSET=ELEM_43
43
*ORIENTATION, NAME=ORI_43, SYSTEM=RECTANGULAR
-19.58383546, 96.62105107, 86.58540639, -19.67067980, 96.69043478, 87.99524467
3, 0.
*SHELL SECTION, ELSET=ELEM_43, COMPOSITE, ORIENTATION=ORI_43
1.20108306, 3, CFRP, 0.
** SOURCE_TET=133
*ELSET, ELSET=ELEM_44
44
*ORIENTATION, NAME=ORI_44, SYSTEM=RECTANGULAR
-17.51311547, 94.66098080, 128.69261495, -17.54355098, 94.37466930, 130.07720853
3, 0.
*SHELL SECTION, ELSET=ELEM_44, COMPOSITE, ORIENTATION=ORI_44
1.20117116, 3, CFRP, 0.
** SOURCE_TET=207
*ELSET, ELSET=ELEM_45
45
*ORIENTATION, NAME=ORI_45, SYSTEM=RECTANGULAR
-64.17119326, 75.43454260, 101.35273050, -64.16918275, 75.31837924, 102.76216373
3, 0.
*SHELL SECTION, ELSET=ELEM_45, COMPOSITE, ORIENTATION=ORI_45
1.20111883, 3, CFRP, 0.
** SOURCE_TET=112
*ELSET, ELSET=ELEM_46
46
*ORIENTATION, NAME=ORI_46, SYSTEM=RECTANGULAR
-63.10658559, 74.55539992, 118.74249433, -63.08139640, 74.40773537, 120.14875202
3, 0.
*SHELL SECTION, ELSET=ELEM_46, COMPOSITE, ORIENTATION=ORI_46
1.20114410, 3, CFRP, 0.
** SOURCE_TET=2513
*ELSET, ELSET=ELEM_47
47
*ORIENTATION, NAME=ORI_47, SYSTEM=RECTANGULAR
-51.79064486, 84.65418052, 88.69043793, -51.87699347, 84.65262230, 90.10201205
3, 0.
*SHELL SECTION, ELSET=ELEM_47, COMPOSITE, ORIENTATION=ORI_47
1.20110035, 3, CFRP, 0.
** SOURCE_TET=212
*ELSET, ELSET=ELEM_48
48
*ORIENTATION, NAME=ORI_48, SYSTEM=RECTANGULAR
-48.70812841, 83.29372132, 128.20223324, -48.64164772, 83.02331909, 129.58876234
3, 0.
*SHELL SECTION, ELSET=ELEM_48, COMPOSITE, ORIENTATION=ORI_48
1.20117140, 3, CFRP, 0.
** SOURCE_TET=72
*ELSET, ELSET=ELEM_49
49
*ORIENTATION, NAME=ORI_49, SYSTEM=RECTANGULAR
-86.09264361, 48.93257856, 99.24532099, -86.06755174, 48.83336299, 100.65582681
3, 0.
*SHELL SECTION, ELSET=ELEM_49, COMPOSITE, ORIENTATION=ORI_49
1.20111573, 3, CFRP, 0.
** SOURCE_TET=50
*ELSET, ELSET=ELEM_50
50
*ORIENTATION, NAME=ORI_50, SYSTEM=RECTANGULAR
-84.24174587, 50.51332718, 116.17857286, -84.22660010, 50.41688500, 117.58941287
3, 0.
*SHELL SECTION, ELSET=ELEM_50, COMPOSITE, ORIENTATION=ORI_50
1.20114040, 3, CFRP, 0.
** SOURCE_TET=125
*ELSET, ELSET=ELEM_51
51
*ORIENTATION, NAME=ORI_51, SYSTEM=RECTANGULAR
-76.23210760, 63.09230454, 91.33920801, -76.34075987, 63.08797672, 92.74923495
3, 0.
*SHELL SECTION, ELSET=ELEM_51, COMPOSITE, ORIENTATION=ORI_51
1.20109105, 3, CFRP, 0.
** SOURCE_TET=345
*ELSET, ELSET=ELEM_52
52
*ORIENTATION, NAME=ORI_52, SYSTEM=RECTANGULAR
-73.45658281, 63.90803411, 125.67585462, -73.33839719, 63.70548796, 127.07048978
3, 0.
*SHELL SECTION, ELSET=ELEM_52, COMPOSITE, ORIENTATION=ORI_52
1.20116556, 3, CFRP, 0.
** SOURCE_TET=52
*ELSET, ELSET=ELEM_53
53
*ORIENTATION, NAME=ORI_53, SYSTEM=RECTANGULAR
-97.64318510, 16.53706347, 100.76818701, -97.57302847, 16.45069954, 102.17801654
3, 0.
*SHELL SECTION, ELSET=ELEM_53, COMPOSITE, ORIENTATION=ORI_53
1.20111799, 3, CFRP, 0.
** SOURCE_TET=36
*ELSET, ELSET=ELEM_54
54
*ORIENTATION, NAME=ORI_54, SYSTEM=RECTANGULAR
-96.65475894, 14.71049058, 118.37515411, -96.54499256, 14.61719182, 119.78201114
3, 0.
*SHELL SECTION, ELSET=ELEM_54, COMPOSITE, ORIENTATION=ORI_54
1.20114362, 3, CFRP, 0.
** SOURCE_TET=103
*ELSET, ELSET=ELEM_55
55
*ORIENTATION, NAME=ORI_55, SYSTEM=RECTANGULAR
-93.20386794, 33.21090087, 90.75531991, -93.30093220, 33.16837435, 92.16555749
3, 0.
*SHELL SECTION, ELSET=ELEM_55, COMPOSITE, ORIENTATION=ORI_55
1.20108914, 3, CFRP, 0.
** SOURCE_TET=168
*ELSET, ELSET=ELEM_56
56
*ORIENTATION, NAME=ORI_56, SYSTEM=RECTANGULAR
-92.42993711, 26.90175496, 129.53792631, -92.20943530, 26.75253127, 130.92685080
3, 0.
*SHELL SECTION, ELSET=ELEM_56, COMPOSITE, ORIENTATION=ORI_56
1.20117152, 3, CFRP, 0.
** SOURCE_TET=206
*ELSET, ELSET=ELEM_57
57
*ORIENTATION, NAME=ORI_57, SYSTEM=RECTANGULAR
-87.69635093, 41.23157899, 127.34398254, -87.51664688, 41.06729564, 128.73707889
3, 0.
*SHELL SECTION, ELSET=ELEM_57, COMPOSITE, ORIENTATION=ORI_57
1.20116818, 3, CFRP, 0.
** SOURCE_TET=67
*ELSET, ELSET=ELEM_58
58
*ORIENTATION, NAME=ORI_58, SYSTEM=RECTANGULAR
-97.40400885, -17.85492278, 99.24547588, -97.32106879, -17.91447526, 100.65599864
3, 0.
*SHELL SECTION, ELSET=ELEM_58, COMPOSITE, ORIENTATION=ORI_58
1.20111573, 3, CFRP, 0.
** SOURCE_TET=23
*ELSET, ELSET=ELEM_59
59
*ORIENTATION, NAME=ORI_59, SYSTEM=RECTANGULAR
-95.92408572, -17.93043038, 119.07790219, -95.77408692, -17.97835103, 120.48332169
3, 0.
*SHELL SECTION, ELSET=ELEM_59, COMPOSITE, ORIENTATION=ORI_59
1.20114458, 3, CFRP, 0.
** SOURCE_TET=109
*ELSET, ELSET=ELEM_60
60
*ORIENTATION, NAME=ORI_60, SYSTEM=RECTANGULAR
-98.95140778, -0.66981034, 90.75501761, -99.02912137, -0.74249745, 92.16522227
3, 0.
*SHELL SECTION, ELSET=ELEM_60, COMPOSITE, ORIENTATION=ORI_60
1.20108914, 3, CFRP, 0.
** SOURCE_TET=859
*ELSET, ELSET=ELEM_61
61
*ORIENTATION, NAME=ORI_61, SYSTEM=RECTANGULAR
-96.57144118, -2.56915303, 128.19713054, -96.31453486, -2.64141721, 129.58593471
3, 0.
*SHELL SECTION, ELSET=ELEM_61, COMPOSITE, ORIENTATION=ORI_61
1.20117223, 3, CFRP, 0.
** SOURCE_TET=43
*ELSET, ELSET=ELEM_62
62
*ORIENTATION, NAME=ORI_62, SYSTEM=RECTANGULAR
-85.42407609, -50.09059852, 99.25216864, -85.32579855, -50.11804761, 100.66269623
3, 0.
*SHELL SECTION, ELSET=ELEM_62, COMPOSITE, ORIENTATION=ORI_62
1.20111573, 3, CFRP, 0.
** SOURCE_TET=48
*ELSET, ELSET=ELEM_63
63
*ORIENTATION, NAME=ORI_63, SYSTEM=RECTANGULAR
-86.00993983, -47.58313621, 115.76656341, -85.92967885, -47.62307029, 117.17793276
3, 0.
*SHELL SECTION, ELSET=ELEM_63, COMPOSITE, ORIENTATION=ORI_63
1.20113981, 3, CFRP, 0.
** SOURCE_TET=62
*ELSET, ELSET=ELEM_64
64
*ORIENTATION, NAME=ORI_64, SYSTEM=RECTANGULAR
-92.75429291, -34.47016479, 89.23920249, -92.79626076, -34.56343514, 90.64971281
3, 0.
*SHELL SECTION, ELSET=ELEM_64, COMPOSITE, ORIENTATION=ORI_64
1.20108700, 3, CFRP, 0.
** SOURCE_TET=1745
*ELSET, ELSET=ELEM_65
65
*ORIENTATION, NAME=ORI_65, SYSTEM=RECTANGULAR
-92.08606257, -31.94933145, 125.47685852, -91.78481036, -32.22715704, 126.83039464
3, 0.
*SHELL SECTION, ELSET=ELEM_65, COMPOSITE, ORIENTATION=ORI_65
1.20157337, 3, CFRP, 0.
** SOURCE_TET=59
*ELSET, ELSET=ELEM_66
66
*ORIENTATION, NAME=ORI_66, SYSTEM=RECTANGULAR
-63.14371122, -76.28371177, 99.25034353, -63.04207369, -76.27582476, 100.66087805
3, 0.
*SHELL SECTION, ELSET=ELEM_66, COMPOSITE, ORIENTATION=ORI_66
1.20111573, 3, CFRP, 0.
** SOURCE_TET=51
*ELSET, ELSET=ELEM_67
67
*ORIENTATION, NAME=ORI_67, SYSTEM=RECTANGULAR
-62.55381462, -75.41290278, 117.58883129, -62.43791780, -75.38838175, 118.99807458
3, 0.
*SHELL SECTION, ELSET=ELEM_67, COMPOSITE, ORIENTATION=ORI_67
1.20114243, 3, CFRP, 0.
** SOURCE_TET=29
*ELSET, ELSET=ELEM_68
68
*ORIENTATION, NAME=ORI_68, SYSTEM=RECTANGULAR
-75.37555837, -64.11059471, 89.24385845, -75.38298064, -64.21272531, 90.65435987
3, 0.
*SHELL SECTION, ELSET=ELEM_68, COMPOSITE, ORIENTATION=ORI_68
1.20108736, 3, CFRP, 0.
** SOURCE_TET=1787
*ELSET, ELSET=ELEM_69
69
*ORIENTATION, NAME=ORI_69, SYSTEM=RECTANGULAR
-71.78320420, -66.02748135, 125.94045011, -71.58312542, -65.94497554, 127.33800558
3, 0.
*SHELL SECTION, ELSET=ELEM_69, COMPOSITE, ORIENTATION=ORI_69
1.20116699, 3, CFRP, 0.
** SOURCE_TET=933
*ELSET, ELSET=ELEM_70
70
*ORIENTATION, NAME=ORI_70, SYSTEM=RECTANGULAR
-80.49282236, -55.58533811, 124.11879771, -80.32634295, -55.56339685, 125.52300681
3, 0.
*SHELL SECTION, ELSET=ELEM_70, COMPOSITE, ORIENTATION=ORI_70
1.20115185, 3, CFRP, 0.
** SOURCE_TET=151
*ELSET, ELSET=ELEM_71
71
*ORIENTATION, NAME=ORI_71, SYSTEM=RECTANGULAR
-33.23900353, -93.28186517, 99.24564955, -33.14630380, -93.23968690, 100.65619120
3, 0.
*SHELL SECTION, ELSET=ELEM_71, COMPOSITE, ORIENTATION=ORI_71
1.20111573, 3, CFRP, 0.
** SOURCE_TET=96
*ELSET, ELSET=ELEM_72
72
*ORIENTATION, NAME=ORI_72, SYSTEM=RECTANGULAR
-34.83630212, -91.50029690, 117.66643196, -34.73016476, -91.42479041, 119.07463423
3, 0.
*SHELL SECTION, ELSET=ELEM_72, COMPOSITE, ORIENTATION=ORI_72
1.20114255, 3, CFRP, 0.
** SOURCE_TET=90
*ELSET, ELSET=ELEM_73
73
*ORIENTATION, NAME=ORI_73, SYSTEM=RECTANGULAR
-48.90012768, -86.02345818, 89.23714522, -48.87205799, -86.12215751, 90.64763114
3, 0.
*SHELL SECTION, ELSET=ELEM_73, COMPOSITE, ORIENTATION=ORI_73
1.20108700, 3, CFRP, 0.
** SOURCE_TET=1602
*ELSET, ELSET=ELEM_74
74
*ORIENTATION, NAME=ORI_74, SYSTEM=RECTANGULAR
-49.98351535, -83.50087670, 126.00782990, -49.80594477, -83.34058075, 127.40166414
3, 0.
*SHELL SECTION, ELSET=ELEM_74, COMPOSITE, ORIENTATION=ORI_74
1.20116615, 3, CFRP, 0.
** SOURCE_TET=307
*ELSET, ELSET=ELEM_75
75
*ORIENTATION, NAME=ORI_75, SYSTEM=RECTANGULAR
0.33667618, -99.02303570, 99.28201492, 0.40931476, -98.95167140, 100.69255765
3, 0.
*SHELL SECTION, ELSET=ELEM_75, COMPOSITE, ORIENTATION=ORI_75
1.20111585, 3, CFRP, 0.
** SOURCE_TET=217
*ELSET, ELSET=ELEM_76
76
*ORIENTATION, NAME=ORI_76, SYSTEM=RECTANGULAR
-0.68017616, -97.35983361, 119.72219162, -0.60806820, -97.19806251, 121.12527058
3, 0.
*SHELL SECTION, ELSET=ELEM_76, COMPOSITE, ORIENTATION=ORI_76
1.20114553, 3, CFRP, 0.
** SOURCE_TET=47
*ELSET, ELSET=ELEM_77
77
*ORIENTATION, NAME=ORI_77, SYSTEM=RECTANGULAR
-16.85692379, -97.56627711, 89.26891587, -16.79703469, -97.64563339, 90.67963054
3, 0.
*SHELL SECTION, ELSET=ELEM_77, COMPOSITE, ORIENTATION=ORI_77
1.20108867, 3, CFRP, 0.
** SOURCE_TET=130
*ELSET, ELSET=ELEM_78
78
*ORIENTATION, NAME=ORI_78, SYSTEM=RECTANGULAR
-19.50204761, -94.25788511, 128.14269111, -19.37896333, -93.99761859, 129.52728910
3, 0.
*SHELL SECTION, ELSET=ELEM_78, COMPOSITE, ORIENTATION=ORI_78
1.20116973, 3, CFRP, 0.
** SOURCE_TET=2648
*ELSET, ELSET=ELEM_79
79
*ORIENTATION, NAME=ORI_79, SYSTEM=RECTANGULAR
34.57326752, -92.79630813, 99.29058773, 34.61728647, -92.70404134, 100.70110152
3, 0.
*SHELL SECTION, ELSET=ELEM_79, COMPOSITE, ORIENTATION=ORI_79
1.20110238, 3, CFRP, 0.
** SOURCE_TET=442
*ELSET, ELSET=ELEM_80
80
*ORIENTATION, NAME=ORI_80, SYSTEM=RECTANGULAR
31.89037443, -92.60318717, 117.47799359, 31.92339898, -92.47990843, 118.88643661
3, 0.
*SHELL SECTION, ELSET=ELEM_80, COMPOSITE, ORIENTATION=ORI_80
1.20114231, 3, CFRP, 0.
** SOURCE_TET=700
*ELSET, ELSET=ELEM_81
81
*ORIENTATION, NAME=ORI_81, SYSTEM=RECTANGULAR
17.58297109, -97.30069442, 89.31306344, 17.67042522, -97.36348693, 90.72317297
3, 0.
*SHELL SECTION, ELSET=ELEM_81, COMPOSITE, ORIENTATION=ORI_81
1.20108783, 3, CFRP, 0.
** SOURCE_TET=1624
*ELSET, ELSET=ELEM_82
82
*ORIENTATION, NAME=ORI_82, SYSTEM=RECTANGULAR
13.90758870, -95.60085853, 127.95013890, 13.95099564, -95.34901193, 129.34106993
3, 0.
*SHELL SECTION, ELSET=ELEM_82, COMPOSITE, ORIENTATION=ORI_82
1.20115757, 3, CFRP, 0.
** SOURCE_TET=475
*ELSET, ELSET=ELEM_83
83
*ORIENTATION, NAME=ORI_83, SYSTEM=RECTANGULAR
64.16504747, -75.42667651, 99.24575264, 64.17470281, -75.32544650, 100.65630546
3, 0.
*SHELL SECTION, ELSET=ELEM_83, COMPOSITE, ORIENTATION=ORI_83
1.20111573, 3, CFRP, 0.
** SOURCE_TET=552
*ELSET, ELSET=ELEM_84
84
*ORIENTATION, NAME=ORI_84, SYSTEM=RECTANGULAR
64.22526368, -73.83074786, 118.07725530, 64.20748059, -73.70004418, 119.48530370
3, 0.
*SHELL SECTION, ELSET=ELEM_84, COMPOSITE, ORIENTATION=ORI_84
1.20114315, 3, CFRP, 0.
** SOURCE_TET=331
*ELSET, ELSET=ELEM_85
85
*ORIENTATION, NAME=ORI_85, SYSTEM=RECTANGULAR
50.12945380, -85.33066374, 89.27710072, 50.22911790, -85.35445926, 90.68759738
3, 0.
*SHELL SECTION, ELSET=ELEM_85, COMPOSITE, ORIENTATION=ORI_85
1.20108700, 3, CFRP, 0.
** SOURCE_TET=2612
*ELSET, ELSET=ELEM_86
86
*ORIENTATION, NAME=ORI_86, SYSTEM=RECTANGULAR
53.67308868, -79.78547151, 130.25462832, 53.59600543, -79.52118899, 131.64178834
3, 0.
*SHELL SECTION, ELSET=ELEM_86, COMPOSITE, ORIENTATION=ORI_86
1.20116103, 3, CFRP, 0.
** SOURCE_TET=1132
*ELSET, ELSET=ELEM_87
87
*ORIENTATION, NAME=ORI_87, SYSTEM=RECTANGULAR
41.00239723, -87.00547962, 129.65339077, 40.95832578, -86.73937753, 131.04164413
3, 0.
*SHELL SECTION, ELSET=ELEM_87, COMPOSITE, ORIENTATION=ORI_87
1.20116007, 3, CFRP, 0.
** SOURCE_TET=692
*ELSET, ELSET=ELEM_88
88
*ORIENTATION, NAME=ORI_88, SYSTEM=RECTANGULAR
85.74833106, -49.51697654, 99.62734042, 85.72118097, -49.41770319, 101.03780405
3, 0.
*SHELL SECTION, ELSET=ELEM_88, COMPOSITE, ORIENTATION=ORI_88
1.20111632, 3, CFRP, 0.
** SOURCE_TET=705
*ELSET, ELSET=ELEM_89
89
*ORIENTATION, NAME=ORI_89, SYSTEM=RECTANGULAR
84.93633099, -48.22974584, 118.76514659, 84.85897317, -48.10413911, 120.17164533
3, 0.
*SHELL SECTION, ELSET=ELEM_89, COMPOSITE, ORIENTATION=ORI_89
1.20114422, 3, CFRP, 0.
** SOURCE_TET=644
*ELSET, ELSET=ELEM_90
90
*ORIENTATION, NAME=ORI_90, SYSTEM=RECTANGULAR
75.89174409, -63.68148240, 89.61328932, 75.98911841, -63.66653369, 91.02406739
3, 0.
*SHELL SECTION, ELSET=ELEM_90, COMPOSITE, ORIENTATION=ORI_90
1.20108807, 3, CFRP, 0.
** SOURCE_TET=70
*ELSET, ELSET=ELEM_91
91
*ORIENTATION, NAME=ORI_91, SYSTEM=RECTANGULAR
75.21256815, -60.86153992, 127.58774977, 75.06131144, -60.64335691, 128.97682053
3, 0.
*SHELL SECTION, ELSET=ELEM_91, COMPOSITE, ORIENTATION=ORI_91
1.20116818, 3, CFRP, 0.
** SOURCE_TET=975
*ELSET, ELSET=ELEM_92
92
*ORIENTATION, NAME=ORI_92, SYSTEM=RECTANGULAR
92.48338828, -35.76206976, 92.17671379, 92.56999786, -35.71628835, 93.58753016
3, 0.
*SHELL SECTION, ELSET=ELEM_92, COMPOSITE, ORIENTATION=ORI_92
1.20109451, 3, CFRP, 0.
** SOURCE_TET=1723
*ELSET, ELSET=ELEM_93
93
*ORIENTATION, NAME=ORI_93, SYSTEM=RECTANGULAR
91.25451157, -33.88551096, 125.44904164, 91.06162172, -33.73215138, 126.84161995
3, 0.
*SHELL SECTION, ELSET=ELEM_93, COMPOSITE, ORIENTATION=ORI_93
1.20115387, 3, CFRP, 0.
** SOURCE_TET=563
*ELSET, ELSET=ELEM_94
94
*ORIENTATION, NAME=ORI_94, SYSTEM=RECTANGULAR
98.67435861, 9.65031338, -63.60104287, 98.66406899, 9.72521904, -62.18885193
3, 0.
*SHELL SECTION, ELSET=ELEM_94, COMPOSITE, ORIENTATION=ORI_94
1.20104623, 3, CFRP, 0.
** SOURCE_TET=562
*ELSET, ELSET=ELEM_95
95
*ORIENTATION, NAME=ORI_95, SYSTEM=RECTANGULAR
98.85625364, -8.32616639, -63.60104287, 98.86654326, -8.25126073, -62.18885193
3, 0.
*SHELL SECTION, ELSET=ELEM_95, COMPOSITE, ORIENTATION=ORI_95
1.20104623, 3, CFRP, 0.
** SOURCE_TET=1663
*ELSET, ELSET=ELEM_96
96
*ORIENTATION, NAME=ORI_96, SYSTEM=RECTANGULAR
97.78460218, 17.39801716, -77.10310601, 97.74741864, 17.46775960, -75.69110269
3, 0.
*SHELL SECTION, ELSET=ELEM_96, COMPOSITE, ORIENTATION=ORI_96
1.20106602, 3, CFRP, 0.
** SOURCE_TET=1662
*ELSET, ELSET=ELEM_97
97
*ORIENTATION, NAME=ORI_97, SYSTEM=RECTANGULAR
97.95144378, -16.07006527, -77.10315962, 97.93268230, -15.99317999, -75.69116222
3, 0.
*SHELL SECTION, ELSET=ELEM_97, COMPOSITE, ORIENTATION=ORI_97
1.20106602, 3, CFRP, 0.
** SOURCE_TET=540
*ELSET, ELSET=ELEM_98
98
*ORIENTATION, NAME=ORI_98, SYSTEM=RECTANGULAR
98.64710857, 9.74352321, -32.15331352, 98.63670522, 9.81844816, -30.74112443
3, 0.
*SHELL SECTION, ELSET=ELEM_98, COMPOSITE, ORIENTATION=ORI_98
1.20100534, 3, CFRP, 0.
** SOURCE_TET=542
*ELSET, ELSET=ELEM_99
99
*ORIENTATION, NAME=ORI_99, SYSTEM=RECTANGULAR
98.85625361, -8.32616657, -32.17247161, 98.86654328, -8.25126056, -30.76028069
3, 0.
*SHELL SECTION, ELSET=ELEM_99, COMPOSITE, ORIENTATION=ORI_99
1.20100534, 3, CFRP, 0.
** SOURCE_TET=629
*ELSET, ELSET=ELEM_100
100
*ORIENTATION, NAME=ORI_100, SYSTEM=RECTANGULAR
97.41370860, 18.73280305, -47.86683151, 97.40181247, 18.80588637, -46.45455770
3, 0.
*SHELL SECTION, ELSET=ELEM_100, COMPOSITE, ORIENTATION=ORI_100
1.20100796, 3, CFRP, 0.
** SOURCE_TET=625
*ELSET, ELSET=ELEM_101
101
*ORIENTATION, NAME=ORI_101, SYSTEM=RECTANGULAR
97.62167315, -17.31358080, -47.88600778, 97.63174740, -17.24024302, -46.47373299
3, 0.
*SHELL SECTION, ELSET=ELEM_101, COMPOSITE, ORIENTATION=ORI_101
1.20100796, 3, CFRP, 0.
** SOURCE_TET=546
*ELSET, ELSET=ELEM_102
102
*ORIENTATION, NAME=ORI_102, SYSTEM=RECTANGULAR
98.85625362, -8.32616654, -0.74390016, 98.86654328, -8.25126059, 0.66829077
3, 0.
*SHELL SECTION, ELSET=ELEM_102, COMPOSITE, ORIENTATION=ORI_102
1.20100546, 3, CFRP, 0.
** SOURCE_TET=779
*ELSET, ELSET=ELEM_103
103
*ORIENTATION, NAME=ORI_103, SYSTEM=RECTANGULAR
98.65482290, 9.71723793, -0.72861425, 98.64445164, 9.79215746, 0.68357537
3, 0.
*SHELL SECTION, ELSET=ELEM_103, COMPOSITE, ORIENTATION=ORI_103
1.20100546, 3, CFRP, 0.
** SOURCE_TET=572
*ELSET, ELSET=ELEM_104
104
*ORIENTATION, NAME=ORI_104, SYSTEM=RECTANGULAR
97.62167315, -17.31358086, -16.45743640, 97.63174740, -17.24024297, -15.04516162
3, 0.
*SHELL SECTION, ELSET=ELEM_104, COMPOSITE, ORIENTATION=ORI_104
1.20100534, 3, CFRP, 0.
** SOURCE_TET=843
*ELSET, ELSET=ELEM_105
105
*ORIENTATION, NAME=ORI_105, SYSTEM=RECTANGULAR
97.39332285, 18.79962121, -16.42296473, 97.38365870, 18.87301656, -15.01069007
3, 0.
*SHELL SECTION, ELSET=ELEM_105, COMPOSITE, ORIENTATION=ORI_105
1.20100534, 3, CFRP, 0.
** SOURCE_TET=548
*ELSET, ELSET=ELEM_106
106
*ORIENTATION, NAME=ORI_106, SYSTEM=RECTANGULAR
98.57235804, 9.99420424, 30.39172630, 98.56164779, 10.06918129, 31.80391033
3, 0.
*SHELL SECTION, ELSET=ELEM_106, COMPOSITE, ORIENTATION=ORI_106
1.20100546, 3, CFRP, 0.
** SOURCE_TET=589
*ELSET, ELSET=ELEM_107
107
*ORIENTATION, NAME=ORI_107, SYSTEM=RECTANGULAR
98.85717500, -8.32274447, 30.69076005, 98.86746052, -8.24783903, 32.10295103
3, 0.
*SHELL SECTION, ELSET=ELEM_107, COMPOSITE, ORIENTATION=ORI_107
1.20100546, 3, CFRP, 0.
** SOURCE_TET=575
*ELSET, ELSET=ELEM_108
108
*ORIENTATION, NAME=ORI_108, SYSTEM=RECTANGULAR
97.62257816, -17.31015704, 14.97722335, 97.63271489, -17.23682786, 16.38949814
3, 0.
*SHELL SECTION, ELSET=ELEM_108, COMPOSITE, ORIENTATION=ORI_108
1.20100546, 3, CFRP, 0.
** SOURCE_TET=953
*ELSET, ELSET=ELEM_109
109
*ORIENTATION, NAME=ORI_109, SYSTEM=RECTANGULAR
97.32296981, 19.05097945, 14.69356029, 97.30713046, 19.12349373, 16.10582471
3, 0.
*SHELL SECTION, ELSET=ELEM_109, COMPOSITE, ORIENTATION=ORI_109
1.20100546, 3, CFRP, 0.
** SOURCE_TET=902
*ELSET, ELSET=ELEM_110
110
*ORIENTATION, NAME=ORI_110, SYSTEM=RECTANGULAR
98.84788492, 9.03138131, 62.14557405, 98.83834468, 9.10616684, 63.55777662
3, 0.
*SHELL SECTION, ELSET=ELEM_110, COMPOSITE, ORIENTATION=ORI_110
1.20103121, 3, CFRP, 0.
** SOURCE_TET=622
*ELSET, ELSET=ELEM_111
111
*ORIENTATION, NAME=ORI_111, SYSTEM=RECTANGULAR
98.85625363, -8.32616648, 62.11324276, 98.86654327, -8.25126064, 63.52543369
3, 0.
*SHELL SECTION, ELSET=ELEM_111, COMPOSITE, ORIENTATION=ORI_111
1.20103109, 3, CFRP, 0.
** SOURCE_TET=725
*ELSET, ELSET=ELEM_112
112
*ORIENTATION, NAME=ORI_112, SYSTEM=RECTANGULAR
97.50039036, 18.36289835, 46.13912419, 97.50779208, 18.43856815, 47.55129249
3, 0.
*SHELL SECTION, ELSET=ELEM_112, COMPOSITE, ORIENTATION=ORI_112
1.20100784, 3, CFRP, 0.
** SOURCE_TET=669
*ELSET, ELSET=ELEM_113
113
*ORIENTATION, NAME=ORI_113, SYSTEM=RECTANGULAR
97.62264598, -17.31016644, 46.40579470, 97.63265378, -17.23681939, 47.81806948
3, 0.
*SHELL SECTION, ELSET=ELEM_113, COMPOSITE, ORIENTATION=ORI_113
1.20100820, 3, CFRP, 0.
** SOURCE_TET=2002
*ELSET, ELSET=ELEM_114
114
*ORIENTATION, NAME=ORI_114, SYSTEM=RECTANGULAR
97.93264337, 16.77565029, 75.64931115, 97.93717326, 16.85076294, 77.06152132
3, 0.
*SHELL SECTION, ELSET=ELEM_114, COMPOSITE, ORIENTATION=ORI_114
1.20106614, 3, CFRP, 0.
** SOURCE_TET=1605
*ELSET, ELSET=ELEM_115
115
*ORIENTATION, NAME=ORI_115, SYSTEM=RECTANGULAR
97.92200777, -16.06630690, 75.61728386, 97.95919128, -15.99656464, 77.02928719
3, 0.
*SHELL SECTION, ELSET=ELEM_115, COMPOSITE, ORIENTATION=ORI_115
1.20106602, 3, CFRP, 0.
** SOURCE_TET=1159
*ELSET, ELSET=ELEM_116
116
*ORIENTATION, NAME=ORI_116, SYSTEM=RECTANGULAR
85.01175406, 50.63896730, -101.11010509, 85.03890415, 50.73824065, -99.69964145
3, 0.
*SHELL SECTION, ELSET=ELEM_116, COMPOSITE, ORIENTATION=ORI_116
1.20111632, 3, CFRP, 0.
** SOURCE_TET=1626
*ELSET, ELSET=ELEM_117
117
*ORIENTATION, NAME=ORI_117, SYSTEM=RECTANGULAR
84.91369671, 48.85982835, -118.70686211, 84.95020848, 48.96288097, -117.29688089
3, 0.
*SHELL SECTION, ELSET=ELEM_117, COMPOSITE, ORIENTATION=ORI_117
1.20114195, 3, CFRP, 0.
** SOURCE_TET=2672
*ELSET, ELSET=ELEM_118
118
*ORIENTATION, NAME=ORI_118, SYSTEM=RECTANGULAR
92.04948612, 37.02976081, -93.66153285, 91.96329767, 37.07447954, -92.25065660
3, 0.
*SHELL SECTION, ELSET=ELEM_118, COMPOSITE, ORIENTATION=ORI_118
1.20110548, 3, CFRP, 0.
** SOURCE_TET=2349
*ELSET, ELSET=ELEM_119
119
*ORIENTATION, NAME=ORI_119, SYSTEM=RECTANGULAR
91.27980378, 34.56730077, -125.37513910, 91.45528541, 34.71189315, -123.97932420
3, 0.
*SHELL SECTION, ELSET=ELEM_119, COMPOSITE, ORIENTATION=ORI_119
1.20115161, 3, CFRP, 0.
** SOURCE_TET=520
*ELSET, ELSET=ELEM_120
120
*ORIENTATION, NAME=ORI_120, SYSTEM=RECTANGULAR
61.30727601, 77.63313751, -100.77605324, 61.29036738, 77.72664650, -99.36503582
3, 0.
*SHELL SECTION, ELSET=ELEM_120, COMPOSITE, ORIENTATION=ORI_120
1.20111585, 3, CFRP, 0.
** SOURCE_TET=404
*ELSET, ELSET=ELEM_121
121
*ORIENTATION, NAME=ORI_121, SYSTEM=RECTANGULAR
62.08353738, 75.03239506, -120.71097027, 62.12220396, 75.18765836, -119.30583746
3, 0.
*SHELL SECTION, ELSET=ELEM_121, COMPOSITE, ORIENTATION=ORI_121
1.20114493, 3, CFRP, 0.
** SOURCE_TET=106
*ELSET, ELSET=ELEM_122
122
*ORIENTATION, NAME=ORI_122, SYSTEM=RECTANGULAR
73.27977219, 66.13614535, -91.14470459, 73.16321362, 66.13068160, -89.73531314
3, 0.
*SHELL SECTION, ELSET=ELEM_122, COMPOSITE, ORIENTATION=ORI_122
1.20108807, 3, CFRP, 0.
** SOURCE_TET=5
*ELSET, ELSET=ELEM_123
123
*ORIENTATION, NAME=ORI_123, SYSTEM=RECTANGULAR
73.86486302, 61.68530182, -128.66654874, 74.03388978, 61.91843204, -127.28196206
3, 0.
*SHELL SECTION, ELSET=ELEM_123, COMPOSITE, ORIENTATION=ORI_123
1.20116782, 3, CFRP, 0.
** SOURCE_TET=256
*ELSET, ELSET=ELEM_124
124
*ORIENTATION, NAME=ORI_124, SYSTEM=RECTANGULAR
32.87676763, 93.33182639, -100.77177657, 32.83299620, 93.42371569, -99.36123043
3, 0.
*SHELL SECTION, ELSET=ELEM_124, COMPOSITE, ORIENTATION=ORI_124
1.20111585, 3, CFRP, 0.
** SOURCE_TET=296
*ELSET, ELSET=ELEM_125
125
*ORIENTATION, NAME=ORI_125, SYSTEM=RECTANGULAR
32.28038249, 92.30374240, -119.41748535, 32.24874826, 92.42715752, -118.00902236
3, 0.
*SHELL SECTION, ELSET=ELEM_125, COMPOSITE, ORIENTATION=ORI_125
1.20114303, 3, CFRP, 0.
** SOURCE_TET=1258
*ELSET, ELSET=ELEM_126
126
*ORIENTATION, NAME=ORI_126, SYSTEM=RECTANGULAR
46.78917081, 87.57763760, -90.80693727, 46.70227241, 87.57085564, -89.39541233
3, 0.
*SHELL SECTION, ELSET=ELEM_126, COMPOSITE, ORIENTATION=ORI_126
1.20110130, 3, CFRP, 0.
** SOURCE_TET=518
*ELSET, ELSET=ELEM_127
127
*ORIENTATION, NAME=ORI_127, SYSTEM=RECTANGULAR
46.93010137, 83.87498471, -129.37625115, 47.01140485, 84.14979644, -127.99137995
3, 0.
*SHELL SECTION, ELSET=ELEM_127, COMPOSITE, ORIENTATION=ORI_127
1.20117211, 3, CFRP, 0.
** SOURCE_TET=150
*ELSET, ELSET=ELEM_128
128
*ORIENTATION, NAME=ORI_128, SYSTEM=RECTANGULAR
-0.66987743, 98.94968010, -100.72873962, -0.74247170, 99.02102012, -99.31819339
3, 0.
*SHELL SECTION, ELSET=ELEM_128, COMPOSITE, ORIENTATION=ORI_128
1.20111585, 3, CFRP, 0.
** SOURCE_TET=108
*ELSET, ELSET=ELEM_129
129
*ORIENTATION, NAME=ORI_129, SYSTEM=RECTANGULAR
-0.67059783, 97.38462748, -120.71146274, -0.74182110, 97.52841516, -119.30638184
3, 0.
*SHELL SECTION, ELSET=ELEM_129, COMPOSITE, ORIENTATION=ORI_129
1.20114493, 3, CFRP, 0.
** SOURCE_TET=235
*ELSET, ELSET=ELEM_130
130
*ORIENTATION, NAME=ORI_130, SYSTEM=RECTANGULAR
16.19894190, 97.75136675, -90.75989628, 16.11445356, 97.69771741, -89.34922854
3, 0.
*SHELL SECTION, ELSET=ELEM_130, COMPOSITE, ORIENTATION=ORI_130
1.20108712, 3, CFRP, 0.
** SOURCE_TET=308
*ELSET, ELSET=ELEM_131
131
*ORIENTATION, NAME=ORI_131, SYSTEM=RECTANGULAR
15.57522193, 95.03218456, -129.37660203, 15.55170121, 95.30271345, -127.98870402
3, 0.
*SHELL SECTION, ELSET=ELEM_131, COMPOSITE, ORIENTATION=ORI_131
1.20117044, 3, CFRP, 0.
** SOURCE_TET=187
*ELSET, ELSET=ELEM_132
132
*ORIENTATION, NAME=ORI_132, SYSTEM=RECTANGULAR
-31.63851220, 93.64806627, -102.41301532, -31.72853223, 93.68271259, -101.00209504
3, 0.
*SHELL SECTION, ELSET=ELEM_132, COMPOSITE, ORIENTATION=ORI_132
1.20111823, 3, CFRP, 0.
** SOURCE_TET=116
*ELSET, ELSET=ELEM_133
133
*ORIENTATION, NAME=ORI_133, SYSTEM=RECTANGULAR
-34.13631351, 91.40094944, -120.14989075, -34.24759562, 91.49563798, -118.74324567
3, 0.
*SHELL SECTION, ELSET=ELEM_133, COMPOSITE, ORIENTATION=ORI_133
1.20114410, 3, CFRP, 0.
** SOURCE_TET=1228
*ELSET, ELSET=ELEM_134
134
*ORIENTATION, NAME=ORI_134, SYSTEM=RECTANGULAR
-15.01974609, 98.30448101, -92.40119226, -15.08755566, 98.25547804, -90.98945554
3, 0.
*SHELL SECTION, ELSET=ELEM_134, COMPOSITE, ORIENTATION=ORI_134
1.20108938, 3, CFRP, 0.
** SOURCE_TET=26
*ELSET, ELSET=ELEM_135
135
*ORIENTATION, NAME=ORI_135, SYSTEM=RECTANGULAR
-17.49886067, 94.37358791, -130.11132367, -17.61600122, 94.63450078, -128.72633177
3, 0.
*SHELL SECTION, ELSET=ELEM_135, COMPOSITE, ORIENTATION=ORI_135
1.20117116, 3, CFRP, 0.
** SOURCE_TET=166
*ELSET, ELSET=ELEM_136
136
*ORIENTATION, NAME=ORI_136, SYSTEM=RECTANGULAR
-65.07628585, 74.53109900, -101.44664971, -65.17922934, 74.54020587, -100.03621726
3, 0.
*SHELL SECTION, ELSET=ELEM_136, COMPOSITE, ORIENTATION=ORI_136
1.20111680, 3, CFRP, 0.
** SOURCE_TET=118
*ELSET, ELSET=ELEM_137
137
*ORIENTATION, NAME=ORI_137, SYSTEM=RECTANGULAR
-62.95636092, 74.57264869, -120.04808491, -63.09160816, 74.62133092, -118.64119535
3, 0.
*SHELL SECTION, ELSET=ELEM_137, COMPOSITE, ORIENTATION=ORI_137
1.20114398, 3, CFRP, 0.
** SOURCE_TET=2562
*ELSET, ELSET=ELEM_138
138
*ORIENTATION, NAME=ORI_138, SYSTEM=RECTANGULAR
-55.41078157, 82.52638768, -87.34472092, -55.46494448, 82.47436195, -85.93250291
3, 0.
*SHELL SECTION, ELSET=ELEM_138, COMPOSITE, ORIENTATION=ORI_138
1.20107603, 3, CFRP, 0.
** SOURCE_TET=129
*ELSET, ELSET=ELEM_139
139
*ORIENTATION, NAME=ORI_139, SYSTEM=RECTANGULAR
-41.52530719, 90.22411332, -88.41926472, -41.83340858, 90.11272210, -87.04352290
3, 0.
*SHELL SECTION, ELSET=ELEM_139, COMPOSITE, ORIENTATION=ORI_139
1.20149148, 3, CFRP, 0.
** SOURCE_TET=159
*ELSET, ELSET=ELEM_140
140
*ORIENTATION, NAME=ORI_140, SYSTEM=RECTANGULAR
-48.53831423, 83.17234207, -129.44787225, -48.73104337, 83.36653714, -128.06037675
3, 0.
*SHELL SECTION, ELSET=ELEM_140, COMPOSITE, ORIENTATION=ORI_140
1.20117033, 3, CFRP, 0.
** SOURCE_TET=91
*ELSET, ELSET=ELEM_141
141
*ORIENTATION, NAME=ORI_141, SYSTEM=RECTANGULAR
-86.02778548, 48.89484970, -100.72888975, -86.12602265, 48.86737632, -99.31835982
3, 0.
*SHELL SECTION, ELSET=ELEM_141, COMPOSITE, ORIENTATION=ORI_141
1.20111585, 3, CFRP, 0.
** SOURCE_TET=58
*ELSET, ELSET=ELEM_142
142
*ORIENTATION, NAME=ORI_142, SYSTEM=RECTANGULAR
-84.14707570, 50.53130101, -117.67791615, -84.23765772, 50.49996641, -116.26695440
3, 0.
*SHELL SECTION, ELSET=ELEM_142, COMPOSITE, ORIENTATION=ORI_142
1.20114052, 3, CFRP, 0.
** SOURCE_TET=176
*ELSET, ELSET=ELEM_143
143
*ORIENTATION, NAME=ORI_143, SYSTEM=RECTANGULAR
-77.23449422, 62.28970753, -91.43445955, -77.23569660, 62.19603641, -90.02335208
3, 0.
*SHELL SECTION, ELSET=ELEM_143, COMPOSITE, ORIENTATION=ORI_143
1.20108950, 3, CFRP, 0.
** SOURCE_TET=1306
*ELSET, ELSET=ELEM_144
144
*ORIENTATION, NAME=ORI_144, SYSTEM=RECTANGULAR
-73.17445669, 63.92499128, -126.98304731, -73.39374848, 64.01914240, -125.58911522
3, 0.
*SHELL SECTION, ELSET=ELEM_144, COMPOSITE, ORIENTATION=ORI_144
1.20116949, 3, CFRP, 0.
** SOURCE_TET=71
*ELSET, ELSET=ELEM_145
145
*ORIENTATION, NAME=ORI_145, SYSTEM=RECTANGULAR
-97.55241985, 16.52083786, -102.92322257, -97.65491235, 16.46533748, -101.51382021
3, 0.
*SHELL SECTION, ELSET=ELEM_145, COMPOSITE, ORIENTATION=ORI_145
1.20111907, 3, CFRP, 0.
** SOURCE_TET=44
*ELSET, ELSET=ELEM_146
146
*ORIENTATION, NAME=ORI_146, SYSTEM=RECTANGULAR
-96.55404666, 14.78864425, -119.72097304, -96.68476158, 14.73553511, -118.31381526
3, 0.
*SHELL SECTION, ELSET=ELEM_146, COMPOSITE, ORIENTATION=ORI_146
1.20114350, 3, CFRP, 0.
** SOURCE_TET=265
*ELSET, ELSET=ELEM_147
147
*ORIENTATION, NAME=ORI_147, SYSTEM=RECTANGULAR
-93.27942137, 33.23815109, -92.91130939, -93.22827782, 33.14220069, -91.50128178
3, 0.
*SHELL SECTION, ELSET=ELEM_147, COMPOSITE, ORIENTATION=ORI_147
1.20109010, 3, CFRP, 0.
** SOURCE_TET=349
*ELSET, ELSET=ELEM_148
148
*ORIENTATION, NAME=ORI_148, SYSTEM=RECTANGULAR
-92.19655931, 26.91478218, -130.88883882, -92.45965500, 26.92288341, -129.49933710
3, 0.
*SHELL SECTION, ELSET=ELEM_148, COMPOSITE, ORIENTATION=ORI_148
1.20117319, 3, CFRP, 0.
** SOURCE_TET=640
*ELSET, ELSET=ELEM_149
149
*ORIENTATION, NAME=ORI_149, SYSTEM=RECTANGULAR
-87.43012024, 41.17773268, -128.84784708, -87.67002777, 41.20770302, -127.45445333
3, 0.
*SHELL SECTION, ELSET=ELEM_149, COMPOSITE, ORIENTATION=ORI_149
1.20117009, 3, CFRP, 0.
** SOURCE_TET=66
*ELSET, ELSET=ELEM_150
150
*ORIENTATION, NAME=ORI_150, SYSTEM=RECTANGULAR
-97.47267608, -17.01624547, -98.46085220, -97.51605066, -17.09837853, -97.04969211
3, 0.
*SHELL SECTION, ELSET=ELEM_150, COMPOSITE, ORIENTATION=ORI_150
1.20111251, 3, CFRP, 0.
** SOURCE_TET=55
*ELSET, ELSET=ELEM_151
151
*ORIENTATION, NAME=ORI_151, SYSTEM=RECTANGULAR
-95.78881497, -17.56954678, -120.71283143, -95.91753169, -17.66751071, -119.30789903
3, 0.
*SHELL SECTION, ELSET=ELEM_151, COMPOSITE, ORIENTATION=ORI_151
1.20114493, 3, CFRP, 0.
** SOURCE_TET=10
*ELSET, ELSET=ELEM_152
152
*ORIENTATION, NAME=ORI_152, SYSTEM=RECTANGULAR
-99.17424780, 0.21934329, -90.69364468, -99.12043648, 0.03302287, -89.29279171
3, 0.
*SHELL SECTION, ELSET=ELEM_152, COMPOSITE, ORIENTATION=ORI_152
1.20149982, 3, CFRP, 0.
** SOURCE_TET=368
*ELSET, ELSET=ELEM_153
153
*ORIENTATION, NAME=ORI_153, SYSTEM=RECTANGULAR
-96.34383711, -2.13357486, -129.68129616, -96.59400269, -2.20925517, -128.29144377
3, 0.
*SHELL SECTION, ELSET=ELEM_153, COMPOSITE, ORIENTATION=ORI_153
1.20117104, 3, CFRP, 0.
** SOURCE_TET=76
*ELSET, ELSET=ELEM_154
154
*ORIENTATION, NAME=ORI_154, SYSTEM=RECTANGULAR
-85.35818756, -50.05460500, -100.72911039, -85.38327945, -50.15382052, -99.31860457
3, 0.
*SHELL SECTION, ELSET=ELEM_154, COMPOSITE, ORIENTATION=ORI_154
1.20111585, 3, CFRP, 0.
** SOURCE_TET=79
*ELSET, ELSET=ELEM_155
155
*ORIENTATION, NAME=ORI_155, SYSTEM=RECTANGULAR
-86.04773162, -47.31421227, -117.37536671, -86.06155665, -47.40665113, -115.96424520
3, 0.
*SHELL SECTION, ELSET=ELEM_155, COMPOSITE, ORIENTATION=ORI_155
1.20114005, 3, CFRP, 0.
** SOURCE_TET=2
*ELSET, ELSET=ELEM_156
156
*ORIENTATION, NAME=ORI_156, SYSTEM=RECTANGULAR
-92.96196939, -33.67192300, -88.44749807, -92.86780058, -33.71558376, -87.03709885
3, 0.
*SHELL SECTION, ELSET=ELEM_156, COMPOSITE, ORIENTATION=ORI_156
1.20108366, 3, CFRP, 0.
** SOURCE_TET=2621
*ELSET, ELSET=ELEM_157
157
*ORIENTATION, NAME=ORI_157, SYSTEM=RECTANGULAR
-91.91003227, -31.45146152, -127.34937764, -92.09597849, -31.59823579, -125.95514619
3, 0.
*SHELL SECTION, ELSET=ELEM_157, COMPOSITE, ORIENTATION=ORI_157
1.20116866, 3, CFRP, 0.
** SOURCE_TET=104
*ELSET, ELSET=ELEM_158
158
*ORIENTATION, NAME=ORI_158, SYSTEM=RECTANGULAR
-63.20305276, -76.12620181, -101.23094773, -62.98929181, -76.39973736, -99.86000478
3, 0.
*SHELL SECTION, ELSET=ELEM_158, COMPOSITE, ORIENTATION=ORI_158
1.20152247, 3, CFRP, 0.
** SOURCE_TET=80
*ELSET, ELSET=ELEM_159
159
*ORIENTATION, NAME=ORI_159, SYSTEM=RECTANGULAR
-62.41168223, -75.22201247, -119.56397216, -62.42383653, -75.35401005, -118.15598462
3, 0.
*SHELL SECTION, ELSET=ELEM_159, COMPOSITE, ORIENTATION=ORI_159
1.20114362, 3, CFRP, 0.
** SOURCE_TET=57
*ELSET, ELSET=ELEM_160
160
*ORIENTATION, NAME=ORI_160, SYSTEM=RECTANGULAR
-75.42673908, -64.16436654, -91.10512862, -75.32364952, -64.17385367, -89.69470934
3, 0.
*SHELL SECTION, ELSET=ELEM_160, COMPOSITE, ORIENTATION=ORI_160
1.20108843, 3, CFRP, 0.
** SOURCE_TET=1254
*ELSET, ELSET=ELEM_161
161
*ORIENTATION, NAME=ORI_161, SYSTEM=RECTANGULAR
-71.74926728, -65.42517784, -128.07577052, -71.85750934, -65.62018970, -126.67925556
3, 0.
*SHELL SECTION, ELSET=ELEM_161, COMPOSITE, ORIENTATION=ORI_161
1.20116770, 3, CFRP, 0.
** SOURCE_TET=664
*ELSET, ELSET=ELEM_162
162
*ORIENTATION, NAME=ORI_162, SYSTEM=RECTANGULAR
-80.65387341, -54.91034431, -125.89445821, -80.73845841, -55.05469007, -124.49017559
3, 0.
*SHELL SECTION, ELSET=ELEM_162, COMPOSITE, ORIENTATION=ORI_162
1.20115244, 3, CFRP, 0.
** SOURCE_TET=85
*ELSET, ELSET=ELEM_163
163
*ORIENTATION, NAME=ORI_163, SYSTEM=RECTANGULAR
-33.21387646, -93.21115779, -100.72929647, -33.16895369, -93.30342352, -99.31881110
3, 0.
*SHELL SECTION, ELSET=ELEM_163, COMPOSITE, ORIENTATION=ORI_163
1.20111585, 3, CFRP, 0.
** SOURCE_TET=97
*ELSET, ELSET=ELEM_164
164
*ORIENTATION, NAME=ORI_164, SYSTEM=RECTANGULAR
-34.79776789, -91.39420605, -119.14839976, -34.76486269, -91.52031930, -117.74020492
3, 0.
*SHELL SECTION, ELSET=ELEM_164, COMPOSITE, ORIENTATION=ORI_164
1.20114267, 3, CFRP, 0.
** SOURCE_TET=339
*ELSET, ELSET=ELEM_165
165
*ORIENTATION, NAME=ORI_165, SYSTEM=RECTANGULAR
-48.93311377, -86.09450112, -91.10451599, -48.83402343, -86.06785252, -89.69402992
3, 0.
*SHELL SECTION, ELSET=ELEM_165, COMPOSITE, ORIENTATION=ORI_165
1.20108950, 3, CFRP, 0.
** SOURCE_TET=1738
*ELSET, ELSET=ELEM_166
166
*ORIENTATION, NAME=ORI_166, SYSTEM=RECTANGULAR
-49.78963311, -83.18362682, -127.96769206, -49.84209681, -83.42575643, -126.57534842
3, 0.
*SHELL SECTION, ELSET=ELEM_166, COMPOSITE, ORIENTATION=ORI_166
1.20116889, 3, CFRP, 0.
** SOURCE_TET=184
*ELSET, ELSET=ELEM_167
167
*ORIENTATION, NAME=ORI_167, SYSTEM=RECTANGULAR
0.27784802, -98.94739859, -100.76244011, 0.35170131, -99.01864742, -99.35195463
3, 0.
*SHELL SECTION, ELSET=ELEM_167, COMPOSITE, ORIENTATION=ORI_167
1.20111585, 3, CFRP, 0.
** SOURCE_TET=132
*ELSET, ELSET=ELEM_168
168
*ORIENTATION, NAME=ORI_168, SYSTEM=RECTANGULAR
-0.68183329, -97.18963239, -121.19838695, -0.60657541, -97.35138468, -119.79547125
3, 0.
*SHELL SECTION, ELSET=ELEM_168, COMPOSITE, ORIENTATION=ORI_168
1.20114565, 3, CFRP, 0.
** SOURCE_TET=180
*ELSET, ELSET=ELEM_169
169
*ORIENTATION, NAME=ORI_169, SYSTEM=RECTANGULAR
-16.92765348, -97.63562262, -90.74925072, -16.84412868, -97.58306993, -89.33848433
3, 0.
*SHELL SECTION, ELSET=ELEM_169, COMPOSITE, ORIENTATION=ORI_169
1.20108700, 3, CFRP, 0.
** SOURCE_TET=100
*ELSET, ELSET=ELEM_170
170
*ORIENTATION, NAME=ORI_170, SYSTEM=RECTANGULAR
-19.44902267, -93.96742935, -129.59971280, -19.42668231, -94.25900978, -128.21606481
3, 0.
*SHELL SECTION, ELSET=ELEM_170, COMPOSITE, ORIENTATION=ORI_170
1.20116913, 3, CFRP, 0.
** SOURCE_TET=384
*ELSET, ELSET=ELEM_171
171
*ORIENTATION, NAME=ORI_171, SYSTEM=RECTANGULAR
33.20092454, -93.18911259, -100.75064872, 33.29342395, -93.22746444, -99.33998469
3, 0.
*SHELL SECTION, ELSET=ELEM_171, COMPOSITE, ORIENTATION=ORI_171
1.20111585, 3, CFRP, 0.
** SOURCE_TET=398
*ELSET, ELSET=ELEM_172
172
*ORIENTATION, NAME=ORI_172, SYSTEM=RECTANGULAR
31.89574237, -92.48098403, -118.98511051, 32.00190910, -92.55378081, -117.57676777
3, 0.
*SHELL SECTION, ELSET=ELEM_172, COMPOSITE, ORIENTATION=ORI_172
1.20114243, 3, CFRP, 0.
** SOURCE_TET=906
*ELSET, ELSET=ELEM_173
173
*ORIENTATION, NAME=ORI_173, SYSTEM=RECTANGULAR
16.19309592, -97.84647944, -90.77075861, 16.25652387, -97.77758576, -89.35964892
3, 0.
*SHELL SECTION, ELSET=ELEM_173, COMPOSITE, ORIENTATION=ORI_173
1.20108700, 3, CFRP, 0.
** SOURCE_TET=935
*ELSET, ELSET=ELEM_174
174
*ORIENTATION, NAME=ORI_174, SYSTEM=RECTANGULAR
13.91927584, -95.32265034, -129.43835083, 14.02366443, -95.56172929, -128.04840684
3, 0.
*SHELL SECTION, ELSET=ELEM_174, COMPOSITE, ORIENTATION=ORI_174
1.20115769, 3, CFRP, 0.
** SOURCE_TET=534
*ELSET, ELSET=ELEM_175
175
*ORIENTATION, NAME=ORI_175, SYSTEM=RECTANGULAR
62.86325660, -76.37424600, -100.73848686, 62.96230253, -76.37723839, -99.32774912
3, 0.
*SHELL SECTION, ELSET=ELEM_175, COMPOSITE, ORIENTATION=ORI_175
1.20111585, 3, CFRP, 0.
** SOURCE_TET=580
*ELSET, ELSET=ELEM_176
176
*ORIENTATION, NAME=ORI_176, SYSTEM=RECTANGULAR
64.17354966, -73.71208786, -119.57726054, 64.30606415, -73.74748516, -118.16971412
3, 0.
*SHELL SECTION, ELSET=ELEM_176, COMPOSITE, ORIENTATION=ORI_176
1.20114326, 3, CFRP, 0.
** SOURCE_TET=958
*ELSET, ELSET=ELEM_177
177
*ORIENTATION, NAME=ORI_177, SYSTEM=RECTANGULAR
47.57717298, -86.88255792, -90.74643855, 47.61237710, -86.79250590, -89.33553412
3, 0.
*SHELL SECTION, ELSET=ELEM_177, COMPOSITE, ORIENTATION=ORI_177
1.20108700, 3, CFRP, 0.
** SOURCE_TET=558
*ELSET, ELSET=ELEM_178
178
*ORIENTATION, NAME=ORI_178, SYSTEM=RECTANGULAR
53.50991100, -79.43107205, -131.97795912, 53.72752886, -79.61471744, -130.59270938
3, 0.
*SHELL SECTION, ELSET=ELEM_178, COMPOSITE, ORIENTATION=ORI_178
1.20117581, 3, CFRP, 0.
** SOURCE_TET=947
*ELSET, ELSET=ELEM_179
179
*ORIENTATION, NAME=ORI_179, SYSTEM=RECTANGULAR
40.75022303, -86.69453553, -131.48655949, 41.15681337, -86.77731635, -130.13458626
3, 0.
*SHELL SECTION, ELSET=ELEM_179, COMPOSITE, ORIENTATION=ORI_179
1.20156705, 3, CFRP, 0.
** SOURCE_TET=770
*ELSET, ELSET=ELEM_180
180
*ORIENTATION, NAME=ORI_180, SYSTEM=RECTANGULAR
85.68115431, -49.47943182, -101.11107136, 85.78171848, -49.45153728, -99.70071370
3, 0.
*SHELL SECTION, ELSET=ELEM_180, COMPOSITE, ORIENTATION=ORI_180
1.20111632, 3, CFRP, 0.
** SOURCE_TET=270
*ELSET, ELSET=ELEM_181
181
*ORIENTATION, NAME=ORI_181, SYSTEM=RECTANGULAR
84.72564076, -48.33604510, -120.21837301, 84.87327715, -48.33860279, -118.81188911
3, 0.
*SHELL SECTION, ELSET=ELEM_181, COMPOSITE, ORIENTATION=ORI_181
1.20115459, 3, CFRP, 0.
** SOURCE_TET=530
*ELSET, ELSET=ELEM_182
182
*ORIENTATION, NAME=ORI_182, SYSTEM=RECTANGULAR
74.70790673, -64.74417381, -91.10578271, 74.69464672, -64.63576599, -89.69579266
3, 0.
*SHELL SECTION, ELSET=ELEM_182, COMPOSITE, ORIENTATION=ORI_182
1.20108807, 3, CFRP, 0.
** SOURCE_TET=340
*ELSET, ELSET=ELEM_183
183
*ORIENTATION, NAME=ORI_183, SYSTEM=RECTANGULAR
74.93975766, -60.83896037, -129.04687195, 75.18502320, -60.93576240, -127.65745690
3, 0.
*SHELL SECTION, ELSET=ELEM_183, COMPOSITE, ORIENTATION=ORI_183
1.20116746, 3, CFRP, 0.
** SOURCE_TET=1175
*ELSET, ELSET=ELEM_184
184
*ORIENTATION, NAME=ORI_184, SYSTEM=RECTANGULAR
92.54578501, -35.78591252, -93.66119246, 92.51378951, -35.69481027, -92.25027905
3, 0.
*SHELL SECTION, ELSET=ELEM_184, COMPOSITE, ORIENTATION=ORI_184
1.20109451, 3, CFRP, 0.
** SOURCE_TET=709
*ELSET, ELSET=ELEM_185
185
*ORIENTATION, NAME=ORI_185, SYSTEM=RECTANGULAR
90.92732242, -33.97344750, -126.89416801, 91.18150407, -33.98341999, -125.50302020
3, 0.
*SHELL SECTION, ELSET=ELEM_185, COMPOSITE, ORIENTATION=ORI_185
1.20116317, 3, CFRP, 0.
** SOURCE_TET=693
*ELSET, ELSET=ELEM_186
186
*ORIENTATION, NAME=ORI_186, SYSTEM=RECTANGULAR
88.76771752, -7.26026766, 152.36522919, 88.17383720, -7.14579724, 153.64358857
3, 0.
*SHELL SECTION, ELSET=ELEM_186, COMPOSITE, ORIENTATION=ORI_186
1.20156074, 3, CFRP, 0.
** SOURCE_TET=537
*ELSET, ELSET=ELEM_187
187
*ORIENTATION, NAME=ORI_187, SYSTEM=RECTANGULAR
88.99926156, 9.50278371, 151.10447099, 88.39308219, 9.53123397, 152.38186566
3, 0.
*SHELL SECTION, ELSET=ELEM_187, COMPOSITE, ORIENTATION=ORI_187
1.20153475, 3, CFRP, 0.
** SOURCE_TET=1740
*ELSET, ELSET=ELEM_188
188
*ORIENTATION, NAME=ORI_188, SYSTEM=RECTANGULAR
92.89471285, -14.39715638, 140.50804357, 92.43552120, -14.24050772, 141.83642764
3, 0.
*SHELL SECTION, ELSET=ELEM_188, COMPOSITE, ORIENTATION=ORI_188
1.20122874, 3, CFRP, 0.
** SOURCE_TET=1609
*ELSET, ELSET=ELEM_189
189
*ORIENTATION, NAME=ORI_189, SYSTEM=RECTANGULAR
93.01045044, 16.80973634, 139.16469345, 92.53981356, 16.79684094, 140.49823559
3, 0.
*SHELL SECTION, ELSET=ELEM_189, COMPOSITE, ORIENTATION=ORI_189
1.20119357, 3, CFRP, 0.
** SOURCE_TET=164
*ELSET, ELSET=ELEM_190
190
*ORIENTATION, NAME=ORI_190, SYSTEM=RECTANGULAR
72.10512824, 10.84001799, 175.77674147, 71.15896177, 10.81398637, 176.82749899
3, 0.
*SHELL SECTION, ELSET=ELEM_190, COMPOSITE, ORIENTATION=ORI_190
1.20235062, 3, CFRP, 0.
** SOURCE_TET=285
*ELSET, ELSET=ELEM_191
191
*ORIENTATION, NAME=ORI_191, SYSTEM=RECTANGULAR
73.90438220, -6.82967963, 175.08946112, 72.96800234, -6.68279138, 176.13904037
3, 0.
*SHELL SECTION, ELSET=ELEM_191, COMPOSITE, ORIENTATION=ORI_191
1.20232165, 3, CFRP, 0.
** SOURCE_TET=2255
*ELSET, ELSET=ELEM_192
192
*ORIENTATION, NAME=ORI_192, SYSTEM=RECTANGULAR
81.46731521, -14.79524124, 164.13726667, 80.71821173, -14.55406287, 165.31228878
3, 0.
*SHELL SECTION, ELSET=ELEM_192, COMPOSITE, ORIENTATION=ORI_192
1.20198095, 3, CFRP, 0.
** SOURCE_TET=54
*ELSET, ELSET=ELEM_193
193
*ORIENTATION, NAME=ORI_193, SYSTEM=RECTANGULAR
79.89532768, 19.69473705, 163.62785768, 79.10158209, 19.56492490, 164.79109314
3, 0.
*SHELL SECTION, ELSET=ELEM_193, COMPOSITE, ORIENTATION=ORI_193
1.20199299, 3, CFRP, 0.
** SOURCE_TET=322
*ELSET, ELSET=ELEM_194
194
*ORIENTATION, NAME=ORI_194, SYSTEM=RECTANGULAR
52.02619397, 10.52512849, 192.72075879, 50.82370258, 10.42135245, 193.45781035
3, 0.
*SHELL SECTION, ELSET=ELEM_194, COMPOSITE, ORIENTATION=ORI_194
1.20309365, 3, CFRP, 0.
** SOURCE_TET=584
*ELSET, ELSET=ELEM_195
195
*ORIENTATION, NAME=ORI_195, SYSTEM=RECTANGULAR
52.60854931, -7.09197531, 193.19446108, 51.44080959, -6.76891703, 193.92385623
3, 0.
*SHELL SECTION, ELSET=ELEM_195, COMPOSITE, ORIENTATION=ORI_195
1.20350635, 3, CFRP, 0.
** SOURCE_TET=1679
*ELSET, ELSET=ELEM_196
196
*ORIENTATION, NAME=ORI_196, SYSTEM=RECTANGULAR
61.82512899, 20.72729502, 184.01091310, 60.79983793, 20.43047404, 184.93863911
3, 0.
*SHELL SECTION, ELSET=ELEM_196, COMPOSITE, ORIENTATION=ORI_196
1.20263290, 3, CFRP, 0.
** SOURCE_TET=1722
*ELSET, ELSET=ELEM_197
197
*ORIENTATION, NAME=ORI_197, SYSTEM=RECTANGULAR
64.20416865, -14.58527866, 183.70942299, 63.21199334, -14.21602432, 184.64710065
3, 0.
*SHELL SECTION, ELSET=ELEM_197, COMPOSITE, ORIENTATION=ORI_197
1.20263529, 3, CFRP, 0.
** SOURCE_TET=2555
*ELSET, ELSET=ELEM_198
198
*ORIENTATION, NAME=ORI_198, SYSTEM=RECTANGULAR
43.06870645, 18.36160745, 197.03252630, 41.93377458, 17.94731276, 197.76757022
3, 0.
*SHELL SECTION, ELSET=ELEM_198, COMPOSITE, ORIENTATION=ORI_198
1.20330763, 3, CFRP, 0.
** SOURCE_TET=677
*ELSET, ELSET=ELEM_199
199
*ORIENTATION, NAME=ORI_199, SYSTEM=RECTANGULAR
44.02712807, -13.18415550, 197.74029792, 42.85459513, -12.82748326, 198.44595465
3, 0.
*SHELL SECTION, ELSET=ELEM_199, COMPOSITE, ORIENTATION=ORI_199
1.20326936, 3, CFRP, 0.
** SOURCE_TET=2376
*ELSET, ELSET=ELEM_200
200
*ORIENTATION, NAME=ORI_200, SYSTEM=RECTANGULAR
26.31131850, 8.61182808, 205.44777835, 25.01931347, 8.22540968, 205.87369364
3, 0.
*SHELL SECTION, ELSET=ELEM_200, COMPOSITE, ORIENTATION=ORI_200
1.20362222, 3, CFRP, 0.
** SOURCE_TET=2142
*ELSET, ELSET=ELEM_201
201
*ORIENTATION, NAME=ORI_201, SYSTEM=RECTANGULAR
33.49770646, -9.09349380, 203.13857193, 32.25757658, -8.60577344, 203.61207665
3, 0.
*SHELL SECTION, ELSET=ELEM_201, COMPOSITE, ORIENTATION=ORI_201
1.20359659, 3, CFRP, 0.
** SOURCE_TET=1106
*ELSET, ELSET=ELEM_202
202
*ORIENTATION, NAME=ORI_202, SYSTEM=RECTANGULAR
32.58474120, 13.53104457, 202.71327833, 31.33770927, 13.08448688, 203.20875549
3, 0.
*SHELL SECTION, ELSET=ELEM_202, COMPOSITE, ORIENTATION=ORI_202
1.20356154, 3, CFRP, 0.
** SOURCE_TET=2330
*ELSET, ELSET=ELEM_203
203
*ORIENTATION, NAME=ORI_203, SYSTEM=RECTANGULAR
11.96867159, 11.82748755, 208.38717957, 10.84748091, 10.99472284, 208.60951806
3, 0.
*SHELL SECTION, ELSET=ELEM_203, COMPOSITE, ORIENTATION=ORI_203
1.20362222, 3, CFRP, 0.
** SOURCE_TET=1020
*ELSET, ELSET=ELEM_204
204
*ORIENTATION, NAME=ORI_204, SYSTEM=RECTANGULAR
6.47082634, 13.25951986, 208.79196917, 5.79792801, 12.03332480, 209.00090339
3, 0.
*SHELL SECTION, ELSET=ELEM_204, COMPOSITE, ORIENTATION=ORI_204
1.20362222, 3, CFRP, 0.
** SOURCE_TET=1100
*ELSET, ELSET=ELEM_205
205
*ORIENTATION, NAME=ORI_205, SYSTEM=RECTANGULAR
-8.34926241, 9.55616859, 209.04175311, -7.54045161, 8.40928227, 209.21632934
3, 0.
*SHELL SECTION, ELSET=ELEM_205, COMPOSITE, ORIENTATION=ORI_205
1.20362222, 3, CFRP, 0.
** SOURCE_TET=248
*ELSET, ELSET=ELEM_206
206
*ORIENTATION, NAME=ORI_206, SYSTEM=RECTANGULAR
-6.21862624, 15.01994024, 208.50630812, -5.73609861, 13.70898780, 208.72669595
3, 0.
*SHELL SECTION, ELSET=ELEM_206, COMPOSITE, ORIENTATION=ORI_206
1.20362222, 3, CFRP, 0.
** SOURCE_TET=2570
*ELSET, ELSET=ELEM_207
207
*ORIENTATION, NAME=ORI_207, SYSTEM=RECTANGULAR
-1.44458125, 14.85974387, 208.74142358, -1.40194200, 13.46214828, 208.95333976
3, 0.
*SHELL SECTION, ELSET=ELEM_207, COMPOSITE, ORIENTATION=ORI_207
1.20362222, 3, CFRP, 0.
** SOURCE_TET=25
*ELSET, ELSET=ELEM_208
208
*ORIENTATION, NAME=ORI_208, SYSTEM=RECTANGULAR
-14.35507222, 11.34813339, 208.02415485, -13.37430371, 10.35963065, 208.27104641
3, 0.
*SHELL SECTION, ELSET=ELEM_208, COMPOSITE, ORIENTATION=ORI_208
1.20362222, 3, CFRP, 0.
** SOURCE_TET=197
*ELSET, ELSET=ELEM_209
209
*ORIENTATION, NAME=ORI_209, SYSTEM=RECTANGULAR
-16.92261681, 8.39387290, 207.98245986, -15.77967733, 7.59770440, 208.22701059
3, 0.
*SHELL SECTION, ELSET=ELEM_209, COMPOSITE, ORIENTATION=ORI_209
1.20362222, 3, CFRP, 0.
** SOURCE_TET=1504
*ELSET, ELSET=ELEM_210
210
*ORIENTATION, NAME=ORI_210, SYSTEM=RECTANGULAR
-14.43433383, 2.84588846, 208.81241699, -13.07841526, 2.50126844, 209.01910962
3, 0.
*SHELL SECTION, ELSET=ELEM_210, COMPOSITE, ORIENTATION=ORI_210
1.20362222, 3, CFRP, 0.
** SOURCE_TET=698
*ELSET, ELSET=ELEM_211
211
*ORIENTATION, NAME=ORI_211, SYSTEM=RECTANGULAR
-7.29689013, -10.38280926, 209.04309671, -6.37180357, -9.32748283, 209.21774209
3, 0.
*SHELL SECTION, ELSET=ELEM_211, COMPOSITE, ORIENTATION=ORI_211
1.20362222, 3, CFRP, 0.
** SOURCE_TET=145
*ELSET, ELSET=ELEM_212
212
*ORIENTATION, NAME=ORI_212, SYSTEM=RECTANGULAR
-12.74094693, -12.28070631, 208.24959258, -11.68930081, -11.36723123, 208.49373130
3, 0.
*SHELL SECTION, ELSET=ELEM_212, COMPOSITE, ORIENTATION=ORI_212
1.20362222, 3, CFRP, 0.
** SOURCE_TET=634
*ELSET, ELSET=ELEM_213
213
*ORIENTATION, NAME=ORI_213, SYSTEM=RECTANGULAR
-15.60439215, -10.08332644, 208.03276977, -14.42673840, -9.33516343, 208.26381902
3, 0.
*SHELL SECTION, ELSET=ELEM_213, COMPOSITE, ORIENTATION=ORI_213
1.20362222, 3, CFRP, 0.
** SOURCE_TET=2684
*ELSET, ELSET=ELEM_214
214
*ORIENTATION, NAME=ORI_214, SYSTEM=RECTANGULAR
-14.28993465, -4.78410565, 208.71274952, -12.91307231, -4.54034734, 208.92448519
3, 0.
*SHELL SECTION, ELSET=ELEM_214, COMPOSITE, ORIENTATION=ORI_214
1.20362222, 3, CFRP, 0.
** SOURCE_TET=338
*ELSET, ELSET=ELEM_215
215
*ORIENTATION, NAME=ORI_215, SYSTEM=RECTANGULAR
-5.05345420, -15.48638215, 208.50334413, -4.42939237, -14.23605767, 208.72068147
3, 0.
*SHELL SECTION, ELSET=ELEM_215, COMPOSITE, ORIENTATION=ORI_215
1.20362222, 3, CFRP, 0.
** SOURCE_TET=1222
*ELSET, ELSET=ELEM_216
216
*ORIENTATION, NAME=ORI_216, SYSTEM=RECTANGULAR
-0.23946856, -15.60383146, 208.66884533, -0.04388882, -14.21938249, 208.88109425
3, 0.
*SHELL SECTION, ELSET=ELEM_216, COMPOSITE, ORIENTATION=ORI_216
1.20362222, 3, CFRP, 0.
** SOURCE_TET=1675
*ELSET, ELSET=ELEM_217
217
*ORIENTATION, NAME=ORI_217, SYSTEM=RECTANGULAR
14.49583905, -12.86150592, 207.74819625, 13.57551278, -11.81810635, 208.00180399
3, 0.
*SHELL SECTION, ELSET=ELEM_217, COMPOSITE, ORIENTATION=ORI_217
1.20362222, 3, CFRP, 0.
** SOURCE_TET=1829
*ELSET, ELSET=ELEM_218
218
*ORIENTATION, NAME=ORI_218, SYSTEM=RECTANGULAR
8.11338558, -14.62775234, 208.35155315, 7.48357184, -13.38408006, 208.58948994
3, 0.
*SHELL SECTION, ELSET=ELEM_218, COMPOSITE, ORIENTATION=ORI_218
1.20362222, 3, CFRP, 0.
** SOURCE_TET=281
*ELSET, ELSET=ELEM_219
219
*ORIENTATION, NAME=ORI_219, SYSTEM=RECTANGULAR
50.71157485, 9.30295157, -193.91472542, 51.89569329, 9.53542784, -193.17728506
3, 0.
*SHELL SECTION, ELSET=ELEM_219, COMPOSITE, ORIENTATION=ORI_219
1.20309985, 3, CFRP, 0.
** SOURCE_TET=361
*ELSET, ELSET=ELEM_220
220
*ORIENTATION, NAME=ORI_220, SYSTEM=RECTANGULAR
51.13819599, -6.98114074, -194.07814379, 52.34626097, -7.04845193, -193.34599065
3, 0.
*SHELL SECTION, ELSET=ELEM_220, COMPOSITE, ORIENTATION=ORI_220
1.20309925, 3, CFRP, 0.
** SOURCE_TET=2624
*ELSET, ELSET=ELEM_221
221
*ORIENTATION, NAME=ORI_221, SYSTEM=RECTANGULAR
42.12981824, 17.26958587, -197.91140048, 43.18647277, 17.92866670, -197.24125597
3, 0.
*SHELL SECTION, ELSET=ELEM_221, COMPOSITE, ORIENTATION=ORI_221
1.20364630, 3, CFRP, 0.
** SOURCE_TET=544
*ELSET, ELSET=ELEM_222
222
*ORIENTATION, NAME=ORI_222, SYSTEM=RECTANGULAR
42.51818462, -13.04572668, -198.59240081, 43.72399248, -13.26436576, -197.88655072
3, 0.
*SHELL SECTION, ELSET=ELEM_222, COMPOSITE, ORIENTATION=ORI_222
1.20327222, 3, CFRP, 0.
** SOURCE_TET=1154
*ELSET, ELSET=ELEM_223
223
*ORIENTATION, NAME=ORI_223, SYSTEM=RECTANGULAR
24.37098570, 7.93513667, -206.02928864, 25.63825258, 8.40942979, -205.61809443
3, 0.
*SHELL SECTION, ELSET=ELEM_223, COMPOSITE, ORIENTATION=ORI_223
1.20362008, 3, CFRP, 0.
** SOURCE_TET=844
*ELSET, ELSET=ELEM_224
224
*ORIENTATION, NAME=ORI_224, SYSTEM=RECTANGULAR
31.94405356, -8.66051220, -203.69189893, 33.21481418, -9.06444044, -203.22072017
3, 0.
*SHELL SECTION, ELSET=ELEM_224, COMPOSITE, ORIENTATION=ORI_224
1.20362008, 3, CFRP, 0.
** SOURCE_TET=2681
*ELSET, ELSET=ELEM_225
225
*ORIENTATION, NAME=ORI_225, SYSTEM=RECTANGULAR
31.33172112, 13.34810862, -203.03969366, 32.45883628, 14.04316345, -202.54319571
3, 0.
*SHELL SECTION, ELSET=ELEM_225, COMPOSITE, ORIENTATION=ORI_225
1.20389402, 3, CFRP, 0.
** SOURCE_TET=144
*ELSET, ELSET=ELEM_226
226
*ORIENTATION, NAME=ORI_226, SYSTEM=RECTANGULAR
72.04096654, 8.89685641, -176.71887749, 72.97433264, 9.05213539, -175.66782271
3, 0.
*SHELL SECTION, ELSET=ELEM_226, COMPOSITE, ORIENTATION=ORI_226
1.20233762, 3, CFRP, 0.
** SOURCE_TET=165
*ELSET, ELSET=ELEM_227
227
*ORIENTATION, NAME=ORI_227, SYSTEM=RECTANGULAR
72.65878799, -6.66888042, -176.50613033, 73.60753251, -6.66756621, -175.45737769
3, 0.
*SHELL SECTION, ELSET=ELEM_227, COMPOSITE, ORIENTATION=ORI_227
1.20232868, 3, CFRP, 0.
** SOURCE_TET=1462
*ELSET, ELSET=ELEM_228
228
*ORIENTATION, NAME=ORI_228, SYSTEM=RECTANGULAR
61.60054090, 17.46147151, -185.20965463, 62.59885645, 17.87143733, -184.29571038
3, 0.
*SHELL SECTION, ELSET=ELEM_228, COMPOSITE, ORIENTATION=ORI_228
1.20265257, 3, CFRP, 0.
** SOURCE_TET=914
*ELSET, ELSET=ELEM_229
229
*ORIENTATION, NAME=ORI_229, SYSTEM=RECTANGULAR
62.71487786, -14.28475127, -185.08839088, 63.75254123, -14.52367610, -184.15770852
3, 0.
*SHELL SECTION, ELSET=ELEM_229, COMPOSITE, ORIENTATION=ORI_229
1.20264959, 3, CFRP, 0.
** SOURCE_TET=356
*ELSET, ELSET=ELEM_230
230
*ORIENTATION, NAME=ORI_230, SYSTEM=RECTANGULAR
88.41820563, 9.07265751, -152.59828767, 89.01092099, 9.18972414, -151.31962278
3, 0.
*SHELL SECTION, ELSET=ELEM_230, COMPOSITE, ORIENTATION=ORI_230
1.20153725, 3, CFRP, 0.
** SOURCE_TET=407
*ELSET, ELSET=ELEM_231
231
*ORIENTATION, NAME=ORI_231, SYSTEM=RECTANGULAR
88.21810401, -7.30980680, -153.50230620, 88.82415350, -7.27708354, -152.22495221
3, 0.
*SHELL SECTION, ELSET=ELEM_231, COMPOSITE, ORIENTATION=ORI_231
1.20155609, 3, CFRP, 0.
** SOURCE_TET=114
*ELSET, ELSET=ELEM_232
232
*ORIENTATION, NAME=ORI_232, SYSTEM=RECTANGULAR
80.04828139, 17.26474926, -164.83154951, 80.79014805, 17.51303764, -163.65342101
3, 0.
*SHELL SECTION, ELSET=ELEM_232, COMPOSITE, ORIENTATION=ORI_232
1.20192897, 3, CFRP, 0.
** SOURCE_TET=1595
*ELSET, ELSET=ELEM_233
233
*ORIENTATION, NAME=ORI_233, SYSTEM=RECTANGULAR
80.49633433, -14.62567535, -165.48140407, 81.27436749, -14.72406819, -164.30455096
3, 0.
*SHELL SECTION, ELSET=ELEM_233, COMPOSITE, ORIENTATION=ORI_233
1.20198405, 3, CFRP, 0.
** SOURCE_TET=1618
*ELSET, ELSET=ELEM_234
234
*ORIENTATION, NAME=ORI_234, SYSTEM=RECTANGULAR
92.59433742, 16.15486417, -140.81719099, 93.04212680, 16.31099865, -139.48485969
3, 0.
*SHELL SECTION, ELSET=ELEM_234, COMPOSITE, ORIENTATION=ORI_234
1.20120537, 3, CFRP, 0.
** SOURCE_TET=1960
*ELSET, ELSET=ELEM_235
235
*ORIENTATION, NAME=ORI_235, SYSTEM=RECTANGULAR
92.47522804, -14.41404603, -141.70988340, 92.95831676, -14.39971437, -140.38081610
3, 0.
*SHELL SECTION, ELSET=ELEM_235, COMPOSITE, ORIENTATION=ORI_235
1.20130348, 3, CFRP, 0.
** SOURCE_TET=2447
*ELSET, ELSET=ELEM_236
236
*ORIENTATION, NAME=ORI_236, SYSTEM=RECTANGULAR
10.49716043, 10.54004435, -208.72445297, 11.52746288, 11.48446186, -208.50869285
3, 0.
*SHELL SECTION, ELSET=ELEM_236, COMPOSITE, ORIENTATION=ORI_236
1.20362008, 3, CFRP, 0.
** SOURCE_TET=1277
*ELSET, ELSET=ELEM_237
237
*ORIENTATION, NAME=ORI_237, SYSTEM=RECTANGULAR
5.76785780, 12.38859529, -208.94778711, 6.28817866, 13.68769283, -208.74379748
3, 0.
*SHELL SECTION, ELSET=ELEM_237, COMPOSITE, ORIENTATION=ORI_237
1.20362008, 3, CFRP, 0.
** SOURCE_TET=970
*ELSET, ELSET=ELEM_238
238
*ORIENTATION, NAME=ORI_238, SYSTEM=RECTANGULAR
-7.43591500, 8.39603115, -209.22581186, -8.36100129, 9.45135780, -209.05116648
3, 0.
*SHELL SECTION, ELSET=ELEM_238, COMPOSITE, ORIENTATION=ORI_238
1.20362008, 3, CFRP, 0.
** SOURCE_TET=234
*ELSET, ELSET=ELEM_239
239
*ORIENTATION, NAME=ORI_239, SYSTEM=RECTANGULAR
-5.83103797, 13.46500495, -208.76733442, -6.46787655, 14.70944372, -208.55330457
3, 0.
*SHELL SECTION, ELSET=ELEM_239, COMPOSITE, ORIENTATION=ORI_239
1.20362008, 3, CFRP, 0.
** SOURCE_TET=2573
*ELSET, ELSET=ELEM_240
240
*ORIENTATION, NAME=ORI_240, SYSTEM=RECTANGULAR
-1.64505088, 13.92667374, -208.89203967, -1.73801211, 15.32224750, -208.68291747
3, 0.
*SHELL SECTION, ELSET=ELEM_240, COMPOSITE, ORIENTATION=ORI_240
1.20362008, 3, CFRP, 0.
** SOURCE_TET=209
*ELSET, ELSET=ELEM_241
241
*ORIENTATION, NAME=ORI_241, SYSTEM=RECTANGULAR
-13.14988083, 10.38347826, -208.30797501, -14.32578720, 11.12464709, -208.04737385
3, 0.
*SHELL SECTION, ELSET=ELEM_241, COMPOSITE, ORIENTATION=ORI_241
1.20362008, 3, CFRP, 0.
** SOURCE_TET=226
*ELSET, ELSET=ELEM_242
242
*ORIENTATION, NAME=ORI_242, SYSTEM=RECTANGULAR
-15.58684510, 7.64926609, -208.24613709, -16.86560652, 8.20644973, -208.01308000
3, 0.
*SHELL SECTION, ELSET=ELEM_242, COMPOSITE, ORIENTATION=ORI_242
1.20362008, 3, CFRP, 0.
** SOURCE_TET=1511
*ELSET, ELSET=ELEM_243
243
*ORIENTATION, NAME=ORI_243, SYSTEM=RECTANGULAR
-12.99003245, 2.55932668, -209.02869270, -14.37524459, 2.75861903, -208.82505110
3, 0.
*SHELL SECTION, ELSET=ELEM_243, COMPOSITE, ORIENTATION=ORI_243
1.20362008, 3, CFRP, 0.
** SOURCE_TET=696
*ELSET, ELSET=ELEM_244
244
*ORIENTATION, NAME=ORI_244, SYSTEM=RECTANGULAR
-6.38451354, -9.22401059, -209.22683313, -7.19333293, -10.37089752, -209.05230069
3, 0.
*SHELL SECTION, ELSET=ELEM_244, COMPOSITE, ORIENTATION=ORI_244
1.20362008, 3, CFRP, 0.
** SOURCE_TET=30
*ELSET, ELSET=ELEM_245
245
*ORIENTATION, NAME=ORI_245, SYSTEM=RECTANGULAR
-11.74154872, -11.35638393, -208.48152569, -12.70171823, -12.36661231, -208.24170675
3, 0.
*SHELL SECTION, ELSET=ELEM_245, COMPOSITE, ORIENTATION=ORI_245
1.20362008, 3, CFRP, 0.
** SOURCE_TET=328
*ELSET, ELSET=ELEM_246
246
*ORIENTATION, NAME=ORI_246, SYSTEM=RECTANGULAR
-14.45128974, -9.34343625, -208.25179248, -15.56468371, -10.18337950, -208.01759347
3, 0.
*SHELL SECTION, ELSET=ELEM_246, COMPOSITE, ORIENTATION=ORI_246
1.20362008, 3, CFRP, 0.
** SOURCE_TET=2560
*ELSET, ELSET=ELEM_247
247
*ORIENTATION, NAME=ORI_247, SYSTEM=RECTANGULAR
-12.84290565, -4.45454162, -208.93980330, -14.18573665, -4.84300958, -208.72556614
3, 0.
*SHELL SECTION, ELSET=ELEM_247, COMPOSITE, ORIENTATION=ORI_247
1.20362008, 3, CFRP, 0.
** SOURCE_TET=247
*ELSET, ELSET=ELEM_248
248
*ORIENTATION, NAME=ORI_248, SYSTEM=RECTANGULAR
-4.26451685, -14.02021507, -208.76203782, -4.74252309, -15.33311668, -208.54340711
3, 0.
*SHELL SECTION, ELSET=ELEM_248, COMPOSITE, ORIENTATION=ORI_248
1.20362008, 3, CFRP, 0.
** SOURCE_TET=394
*ELSET, ELSET=ELEM_249
249
*ORIENTATION, NAME=ORI_249, SYSTEM=RECTANGULAR
0.08971784, -13.27161264, -209.01654813, 0.17771742, -14.66808071, -208.81128485
3, 0.
*SHELL SECTION, ELSET=ELEM_249, COMPOSITE, ORIENTATION=ORI_249
1.20362008, 3, CFRP, 0.
** SOURCE_TET=1203
*ELSET, ELSET=ELEM_250
250
*ORIENTATION, NAME=ORI_250, SYSTEM=RECTANGULAR
12.75783756, -10.56710296, -208.33015853, 13.88306036, -11.39096951, -208.09538724
3, 0.
*SHELL SECTION, ELSET=ELEM_250, COMPOSITE, ORIENTATION=ORI_250
1.20362008, 3, CFRP, 0.
** SOURCE_TET=1398
*ELSET, ELSET=ELEM_251
251
*ORIENTATION, NAME=ORI_251, SYSTEM=RECTANGULAR
7.08273695, -11.46040663, -208.96490004, 7.75492617, -12.68657375, -208.75353342
3, 0.
*SHELL SECTION, ELSET=ELEM_251, COMPOSITE, ORIENTATION=ORI_251
1.20362008, 3, CFRP, 0.
** SOURCE_TET=1784
*ELSET, ELSET=ELEM_252
252
*ORIENTATION, NAME=ORI_252, SYSTEM=RECTANGULAR
94.41679899, -31.91599241, 14.98204373, 94.44319667, -31.84629876, 16.39429228
3, 0.
*SHELL SECTION, ELSET=ELEM_252, COMPOSITE, ORIENTATION=ORI_252
1.20100546, 3, CFRP, 0.
** SOURCE_TET=1625
*ELSET, ELSET=ELEM_253
253
*ORIENTATION, NAME=ORI_253, SYSTEM=RECTANGULAR
94.31026925, -32.14021407, -16.49165369, 94.33698526, -32.07058013, -15.07940818
3, 0.
*SHELL SECTION, ELSET=ELEM_253, COMPOSITE, ORIENTATION=ORI_253
1.20100534, 3, CFRP, 0.
** SOURCE_TET=2118
*ELSET, ELSET=ELEM_254
254
*ORIENTATION, NAME=ORI_254, SYSTEM=RECTANGULAR
92.19039395, -37.71899031, -0.77204906, 92.21959485, -37.65089302, 0.64022218
3, 0.
*SHELL SECTION, ELSET=ELEM_254, COMPOSITE, ORIENTATION=ORI_254
1.20100546, 3, CFRP, 0.
** SOURCE_TET=1129
*ELSET, ELSET=ELEM_255
255
*ORIENTATION, NAME=ORI_255, SYSTEM=RECTANGULAR
92.22212198, 36.29857128, -16.39673267, 92.19127837, 36.36730462, -14.98452716
3, 0.
*SHELL SECTION, ELSET=ELEM_255, COMPOSITE, ORIENTATION=ORI_255
1.20100534, 3, CFRP, 0.
** SOURCE_TET=439
*ELSET, ELSET=ELEM_256
256
*ORIENTATION, NAME=ORI_256, SYSTEM=RECTANGULAR
87.81229190, 45.82553426, 0.65058392, 87.76149389, 45.88365430, 2.06268931
3, 0.
*SHELL SECTION, ELSET=ELEM_256, COMPOSITE, ORIENTATION=ORI_256
1.20100546, 3, CFRP, 0.
** SOURCE_TET=720
*ELSET, ELSET=ELEM_257
257
*ORIENTATION, NAME=ORI_257, SYSTEM=RECTANGULAR
91.45216565, 37.59774050, 16.04423886, 91.42589953, 37.66888085, 17.45641773
3, 0.
*SHELL SECTION, ELSET=ELEM_257, COMPOSITE, ORIENTATION=ORI_257
1.20100546, 3, CFRP, 0.
** SOURCE_TET=119
*ELSET, ELSET=ELEM_258
258
*ORIENTATION, NAME=ORI_258, SYSTEM=RECTANGULAR
-91.85834691, -36.19709132, -68.09419015, -91.89292940, -36.28815347, -66.68333519
3, 0.
*SHELL SECTION, ELSET=ELEM_258, COMPOSITE, ORIENTATION=ORI_258
1.20105386, 3, CFRP, 0.
** SOURCE_TET=191
*ELSET, ELSET=ELEM_259
259
*ORIENTATION, NAME=ORI_259, SYSTEM=RECTANGULAR
-75.20773183, -64.28475992, -74.37715548, -75.24079449, -64.40585105, -72.96852359
3, 0.
*SHELL SECTION, ELSET=ELEM_259, COMPOSITE, ORIENTATION=ORI_259
1.20106399, 3, CFRP, 0.
** SOURCE_TET=2132
*ELSET, ELSET=ELEM_260
260
*ORIENTATION, NAME=ORI_260, SYSTEM=RECTANGULAR
-84.17991676, -52.78868018, -63.64931426, -84.10348163, -52.82691707, -62.23768555
3, 0.
*SHELL SECTION, ELSET=ELEM_260, COMPOSITE, ORIENTATION=ORI_260
1.20103323, 3, CFRP, 0.
** SOURCE_TET=222
*ELSET, ELSET=ELEM_261
261
*ORIENTATION, NAME=ORI_261, SYSTEM=RECTANGULAR
17.67423244, -97.36745219, 69.57529546, 17.73393158, -97.27770661, 70.98539537
3, 0.
*SHELL SECTION, ELSET=ELEM_261, COMPOSITE, ORIENTATION=ORI_261
1.20105124, 3, CFRP, 0.
** SOURCE_TET=354
*ELSET, ELSET=ELEM_262
262
*ORIENTATION, NAME=ORI_262, SYSTEM=RECTANGULAR
4.35247718, -99.37625230, 60.95360301, 4.42753122, -99.39448336, 62.36570589
3, 0.
*SHELL SECTION, ELSET=ELEM_262, COMPOSITE, ORIENTATION=ORI_262
1.20103872, 3, CFRP, 0.
** SOURCE_TET=645
*ELSET, ELSET=ELEM_263
263
*ORIENTATION, NAME=ORI_263, SYSTEM=RECTANGULAR
-12.92532194, -98.07528469, 70.67958292, -12.84640962, -98.05268215, 72.09141222
3, 0.
*SHELL SECTION, ELSET=ELEM_263, COMPOSITE, ORIENTATION=ORI_263
1.20106161, 3, CFRP, 0.
** SOURCE_TET=2502
*ELSET, ELSET=ELEM_264
264
*ORIENTATION, NAME=ORI_264, SYSTEM=RECTANGULAR
-80.97178325, 56.90191974, -55.36152244, -81.01265113, 56.83902691, -53.94929926
3, 0.
*SHELL SECTION, ELSET=ELEM_264, COMPOSITE, ORIENTATION=ORI_264
1.20102119, 3, CFRP, 0.
** SOURCE_TET=2577
*ELSET, ELSET=ELEM_265
265
*ORIENTATION, NAME=ORI_265, SYSTEM=RECTANGULAR
-74.23987895, 65.37322151, -71.69905361, -74.29053345, 65.31843516, -70.28680980
3, 0.
*SHELL SECTION, ELSET=ELEM_265, COMPOSITE, ORIENTATION=ORI_265
1.20106065, 3, CFRP, 0.
** SOURCE_TET=2535
*ELSET, ELSET=ELEM_266
266
*ORIENTATION, NAME=ORI_266, SYSTEM=RECTANGULAR
-90.79118282, 39.35797383, -57.59681195, -90.82421072, 39.29090850, -56.18457563
3, 0.
*SHELL SECTION, ELSET=ELEM_266, COMPOSITE, ORIENTATION=ORI_266
1.20103860, 3, CFRP, 0.
** SOURCE_TET=107
*ELSET, ELSET=ELEM_267
267
*ORIENTATION, NAME=ORI_267, SYSTEM=RECTANGULAR
-94.48077251, 28.91388822, -75.41180429, -94.53534877, 28.85436754, -73.99989823
3, 0.
*SHELL SECTION, ELSET=ELEM_267, COMPOSITE, ORIENTATION=ORI_267
1.20106459, 3, CFRP, 0.
** SOURCE_TET=2545
*ELSET, ELSET=ELEM_268
268
*ORIENTATION, NAME=ORI_268, SYSTEM=RECTANGULAR
-16.22821267, 97.10159974, 66.92628852, -16.28782454, 97.02570628, 68.33720545
3, 0.
*SHELL SECTION, ELSET=ELEM_268, COMPOSITE, ORIENTATION=ORI_268
1.20103979, 3, CFRP, 0.
** SOURCE_TET=174
*ELSET, ELSET=ELEM_269
269
*ORIENTATION, NAME=ORI_269, SYSTEM=RECTANGULAR
18.71348064, 97.17250630, 69.47390353, 18.62919231, 97.12385181, 70.88476434
3, 0.
*SHELL SECTION, ELSET=ELEM_269, COMPOSITE, ORIENTATION=ORI_269
1.20105815, 3, CFRP, 0.
** SOURCE_TET=53
*ELSET, ELSET=ELEM_270
270
*ORIENTATION, NAME=ORI_270, SYSTEM=RECTANGULAR
4.87592638, 98.97999589, 59.82752087, 4.80534201, 99.02866666, 61.23913307
3, 0.
*SHELL SECTION, ELSET=ELEM_270, COMPOSITE, ORIENTATION=ORI_270
1.20103335, 3, CFRP, 0.
** SOURCE_TET=33
*ELSET, ELSET=ELEM_271
271
*ORIENTATION, NAME=ORI_271, SYSTEM=RECTANGULAR
-98.80829958, -3.60208848, 56.55872684, -98.77004720, -3.67678047, 57.97044844
3, 0.
*SHELL SECTION, ELSET=ELEM_271, COMPOSITE, ORIENTATION=ORI_271
1.20102298, 3, CFRP, 0.
** SOURCE_TET=32
*ELSET, ELSET=ELEM_272
272
*ORIENTATION, NAME=ORI_272, SYSTEM=RECTANGULAR
-98.41945705, 5.43642108, 72.50958239, -98.42780095, 5.36183331, 73.92180300
3, 0.
*SHELL SECTION, ELSET=ELEM_272, COMPOSITE, ORIENTATION=ORI_272
1.20106256, 3, CFRP, 0.
** SOURCE_TET=2505
*ELSET, ELSET=ELEM_273
273
*ORIENTATION, NAME=ORI_273, SYSTEM=RECTANGULAR
-95.79971392, -24.19397550, 55.26678919, -95.81472404, -24.27511237, 56.67859353
3, 0.
*SHELL SECTION, ELSET=ELEM_273, COMPOSITE, ORIENTATION=ORI_273
1.20102608, 3, CFRP, 0.
** SOURCE_TET=117
*ELSET, ELSET=ELEM_274
274
*ORIENTATION, NAME=ORI_274, SYSTEM=RECTANGULAR
-91.52518015, -37.53711664, 69.63960461, -91.40566618, -37.72221404, 71.03654963
3, 0.
*SHELL SECTION, ELSET=ELEM_274, COMPOSITE, ORIENTATION=ORI_274
1.20146406, 3, CFRP, 0.
** SOURCE_TET=728
*ELSET, ELSET=ELEM_275
275
*ORIENTATION, NAME=ORI_275, SYSTEM=RECTANGULAR
13.16310867, -98.18225173, -70.35062064, 13.24271182, -98.21899274, -68.93912731
3, 0.
*SHELL SECTION, ELSET=ELEM_275, COMPOSITE, ORIENTATION=ORI_275
1.20104289, 3, CFRP, 0.
** SOURCE_TET=399
*ELSET, ELSET=ELEM_276
276
*ORIENTATION, NAME=ORI_276, SYSTEM=RECTANGULAR
-17.73216957, -97.39986616, -73.42021429, -17.67614716, -97.50134900, -72.01075953
3, 0.
*SHELL SECTION, ELSET=ELEM_276, COMPOSITE, ORIENTATION=ORI_276
1.20106173, 3, CFRP, 0.
** SOURCE_TET=1877
*ELSET, ELSET=ELEM_277
277
*ORIENTATION, NAME=ORI_277, SYSTEM=RECTANGULAR
-3.56568915, -99.29049795, -63.01380730, -3.48905582, -99.25118823, -61.60221881
3, 0.
*SHELL SECTION, ELSET=ELEM_277, COMPOSITE, ORIENTATION=ORI_277
1.20103216, 3, CFRP, 0.
** SOURCE_TET=565
*ELSET, ELSET=ELEM_278
278
*ORIENTATION, NAME=ORI_278, SYSTEM=RECTANGULAR
16.25308528, 97.65257228, -74.03181021, 16.19946142, 97.76249192, -72.62289497
3, 0.
*SHELL SECTION, ELSET=ELEM_278, COMPOSITE, ORIENTATION=ORI_278
1.20106268, 3, CFRP, 0.
** SOURCE_TET=173
*ELSET, ELSET=ELEM_279
279
*ORIENTATION, NAME=ORI_279, SYSTEM=RECTANGULAR
0.59993028, 99.22148280, -64.56620495, 0.52477091, 99.15432261, -63.15558786
3, 0.
*SHELL SECTION, ELSET=ELEM_279, COMPOSITE, ORIENTATION=ORI_279
1.20103848, 3, CFRP, 0.
** SOURCE_TET=632
*ELSET, ELSET=ELEM_280
280
*ORIENTATION, NAME=ORI_280, SYSTEM=RECTANGULAR
-13.81773363, 98.45985792, -72.96413345, -13.89566295, 98.48868218, -71.55236286
3, 0.
*SHELL SECTION, ELSET=ELEM_280, COMPOSITE, ORIENTATION=ORI_280
1.20106101, 3, CFRP, 0.
** SOURCE_TET=101
*ELSET, ELSET=ELEM_281
281
*ORIENTATION, NAME=ORI_281, SYSTEM=RECTANGULAR
48.93336167, 86.09344829, 69.48115147, 48.83301859, 86.06671575, 70.89154738
3, 0.
*SHELL SECTION, ELSET=ELEM_281, COMPOSITE, ORIENTATION=ORI_281
1.20105827, 3, CFRP, 0.
** SOURCE_TET=216
*ELSET, ELSET=ELEM_282
282
*ORIENTATION, NAME=ORI_282, SYSTEM=RECTANGULAR
61.42720913, 78.05571863, 59.60210579, 61.39486584, 78.13386174, 61.01378832
3, 0.
*SHELL SECTION, ELSET=ELEM_282, COMPOSITE, ORIENTATION=ORI_282
1.20103192, 3, CFRP, 0.
** SOURCE_TET=1002
*ELSET, ELSET=ELEM_283
283
*ORIENTATION, NAME=ORI_283, SYSTEM=RECTANGULAR
73.41026219, 66.57194626, 69.72350553, 73.32124005, 66.59303251, 71.13475690
3, 0.
*SHELL SECTION, ELSET=ELEM_283, COMPOSITE, ORIENTATION=ORI_283
1.20105910, 3, CFRP, 0.
** SOURCE_TET=1708
*ELSET, ELSET=ELEM_284
284
*ORIENTATION, NAME=ORI_284, SYSTEM=RECTANGULAR
45.38404727, 88.28768126, -70.77623944, 45.34138396, 88.36604163, -69.36484315
3, 0.
*SHELL SECTION, ELSET=ELEM_284, COMPOSITE, ORIENTATION=ORI_284
1.20104408, 3, CFRP, 0.
** SOURCE_TET=143
*ELSET, ELSET=ELEM_285
285
*ORIENTATION, NAME=ORI_285, SYSTEM=RECTANGULAR
71.43124059, 68.00849322, -73.41525800, 71.46633779, 68.13715649, -72.00734680
3, 0.
*SHELL SECTION, ELSET=ELEM_285, COMPOSITE, ORIENTATION=ORI_285
1.20106220, 3, CFRP, 0.
** SOURCE_TET=161
*ELSET, ELSET=ELEM_286
286
*ORIENTATION, NAME=ORI_286, SYSTEM=RECTANGULAR
58.17798957, 80.35709568, -63.01832863, 58.07984629, 80.34838622, -61.60755153
3, 0.
*SHELL SECTION, ELSET=ELEM_286, COMPOSITE, ORIENTATION=ORI_286
1.20103478, 3, CFRP, 0.
** SOURCE_TET=413
*ELSET, ELSET=ELEM_287
287
*ORIENTATION, NAME=ORI_287, SYSTEM=RECTANGULAR
50.17048427, -85.39418536, 69.71595413, 50.19626076, -85.29420880, 71.12639387
3, 0.
*SHELL SECTION, ELSET=ELEM_287, COMPOSITE, ORIENTATION=ORI_287
1.20105851, 3, CFRP, 0.
** SOURCE_TET=131
*ELSET, ELSET=ELEM_288
288
*ORIENTATION, NAME=ORI_288, SYSTEM=RECTANGULAR
63.54693832, -76.02676065, 63.00471764, 63.65158751, -76.03795917, 64.41500951
3, 0.
*SHELL SECTION, ELSET=ELEM_288, COMPOSITE, ORIENTATION=ORI_288
1.20103693, 3, CFRP, 0.
** SOURCE_TET=1864
*ELSET, ELSET=ELEM_289
289
*ORIENTATION, NAME=ORI_289, SYSTEM=RECTANGULAR
75.38718133, -64.39670746, 72.93665625, 75.36439762, -64.28260058, 74.34607475
3, 0.
*SHELL SECTION, ELSET=ELEM_289, COMPOSITE, ORIENTATION=ORI_289
1.20106375, 3, CFRP, 0.
** SOURCE_TET=1232
*ELSET, ELSET=ELEM_290
290
*ORIENTATION, NAME=ORI_290, SYSTEM=RECTANGULAR
43.06975406, -88.98758130, -72.31192982, 43.15847957, -88.99800781, -70.90054076
3, 0.
*SHELL SECTION, ELSET=ELEM_290, COMPOSITE, ORIENTATION=ORI_290
1.20106006, 3, CFRP, 0.
** SOURCE_TET=1124
*ELSET, ELSET=ELEM_291
291
*ORIENTATION, NAME=ORI_291, SYSTEM=RECTANGULAR
65.91820069, -74.39562925, -62.26092562, 65.96717770, -74.33904043, -60.84869371
3, 0.
*SHELL SECTION, ELSET=ELEM_291, COMPOSITE, ORIENTATION=ORI_291
1.20103121, 3, CFRP, 0.
** SOURCE_TET=662
*ELSET, ELSET=ELEM_292
292
*ORIENTATION, NAME=ORI_292, SYSTEM=RECTANGULAR
52.69582099, -84.08336353, -61.48002346, 52.76530697, -84.05539377, -60.06779494
3, 0.
*SHELL SECTION, ELSET=ELEM_292, COMPOSITE, ORIENTATION=ORI_292
1.20103002, 3, CFRP, 0.
** SOURCE_TET=798
*ELSET, ELSET=ELEM_293
293
*ORIENTATION, NAME=ORI_293, SYSTEM=RECTANGULAR
74.60429383, -64.72054702, -73.45214278, 74.73067755, -64.73340868, -72.04364651
3, 0.
*SHELL SECTION, ELSET=ELEM_293, COMPOSITE, ORIENTATION=ORI_293
1.20106220, 3, CFRP, 0.
** SOURCE_TET=2540
*ELSET, ELSET=ELEM_294
294
*ORIENTATION, NAME=ORI_294, SYSTEM=RECTANGULAR
-90.93679778, 38.46122842, 56.42799283, -90.95616299, 38.38934403, 57.84024551
3, 0.
*SHELL SECTION, ELSET=ELEM_294, COMPOSITE, ORIENTATION=ORI_294
1.20102799, 3, CFRP, 0.
** SOURCE_TET=7
*ELSET, ELSET=ELEM_295
295
*ORIENTATION, NAME=ORI_295, SYSTEM=RECTANGULAR
-81.20111904, 56.71923922, 57.10784984, -81.25242039, 56.66334895, 58.52002704
3, 0.
*SHELL SECTION, ELSET=ELEM_295, COMPOSITE, ORIENTATION=ORI_295
1.20102608, 3, CFRP, 0.
** SOURCE_TET=46
*ELSET, ELSET=ELEM_296
296
*ORIENTATION, NAME=ORI_296, SYSTEM=RECTANGULAR
-94.69705511, 27.93319305, 72.50967836, -94.71511657, 27.86059741, 73.92191193
3, 0.
*SHELL SECTION, ELSET=ELEM_296, COMPOSITE, ORIENTATION=ORI_296
1.20106256, 3, CFRP, 0.
** SOURCE_TET=189
*ELSET, ELSET=ELEM_297
297
*ORIENTATION, NAME=ORI_297, SYSTEM=RECTANGULAR
-73.59419004, 65.96415989, 73.77507506, -73.60919241, 65.88008598, 75.18670763
3, 0.
*SHELL SECTION, ELSET=ELEM_297, COMPOSITE, ORIENTATION=ORI_297
1.20106554, 3, CFRP, 0.
** SOURCE_TET=169
*ELSET, ELSET=ELEM_298
298
*ORIENTATION, NAME=ORI_298, SYSTEM=RECTANGULAR
-49.79405267, -85.57805600, 69.77325015, -49.69424013, -85.55091186, 71.18367585
3, 0.
*SHELL SECTION, ELSET=ELEM_298, COMPOSITE, ORIENTATION=ORI_298
1.20105863, 3, CFRP, 0.
** SOURCE_TET=102
*ELSET, ELSET=ELEM_299
299
*ORIENTATION, NAME=ORI_299, SYSTEM=RECTANGULAR
-75.68028070, -63.86370500, 69.76767684, -75.57599233, -63.87126298, 71.17801964
3, 0.
*SHELL SECTION, ELSET=ELEM_299, COMPOSITE, ORIENTATION=ORI_299
1.20105898, 3, CFRP, 0.
** SOURCE_TET=74
*ELSET, ELSET=ELEM_300
300
*ORIENTATION, NAME=ORI_300, SYSTEM=RECTANGULAR
-64.32461512, -75.32119151, 60.19154681, -64.10315527, -75.60098739, 61.56000207
3, 0.
*SHELL SECTION, ELSET=ELEM_300, COMPOSITE, ORIENTATION=ORI_300
1.20144069, 3, CFRP, 0.
** SOURCE_TET=913
*ELSET, ELSET=ELEM_301
301
*ORIENTATION, NAME=ORI_301, SYSTEM=RECTANGULAR
92.39107534, 35.99062416, -47.86740088, 92.36269288, 36.06031583, -46.45519073
3, 0.
*SHELL SECTION, ELSET=ELEM_301, COMPOSITE, ORIENTATION=ORI_301
1.20101535, 3, CFRP, 0.
** SOURCE_TET=784
*ELSET, ELSET=ELEM_302
302
*ORIENTATION, NAME=ORI_302, SYSTEM=RECTANGULAR
88.84274325, 44.16155971, -64.44521822, 88.81225487, 44.22905603, -63.03294534
3, 0.
*SHELL SECTION, ELSET=ELEM_302, COMPOSITE, ORIENTATION=ORI_302
1.20103955, 3, CFRP, 0.
** SOURCE_TET=1218
*ELSET, ELSET=ELEM_303
303
*ORIENTATION, NAME=ORI_303, SYSTEM=RECTANGULAR
92.77050693, 34.59478884, -77.94821015, 92.77031300, 34.67516067, -76.53628227
3, 0.
*SHELL SECTION, ELSET=ELEM_303, COMPOSITE, ORIENTATION=ORI_303
1.20107126, 3, CFRP, 0.
** SOURCE_TET=2598
*ELSET, ELSET=ELEM_304
304
*ORIENTATION, NAME=ORI_304, SYSTEM=RECTANGULAR
93.87725995, 33.17666783, 46.13876494, 93.83896179, 33.24199908, 47.55094945
3, 0.
*SHELL SECTION, ELSET=ELEM_304, COMPOSITE, ORIENTATION=ORI_304
1.20100546, 3, CFRP, 0.
** SOURCE_TET=1368
*ELSET, ELSET=ELEM_305
305
*ORIENTATION, NAME=ORI_305, SYSTEM=RECTANGULAR
92.96218947, 33.98400064, 76.49322414, 92.91812070, 34.04820169, 77.90529219
3, 0.
*SHELL SECTION, ELSET=ELEM_305, COMPOSITE, ORIENTATION=ORI_305
1.20107162, 3, CFRP, 0.
** SOURCE_TET=758
*ELSET, ELSET=ELEM_306
306
*ORIENTATION, NAME=ORI_306, SYSTEM=RECTANGULAR
90.40341304, 41.09753259, 62.99167410, 90.33729595, 41.15033628, 64.40335406
3, 0.
*SHELL SECTION, ELSET=ELEM_306, COMPOSITE, ORIENTATION=ORI_306
1.20103967, 3, CFRP, 0.
** SOURCE_TET=1659
*ELSET, ELSET=ELEM_307
307
*ORIENTATION, NAME=ORI_307, SYSTEM=RECTANGULAR
94.05513968, -32.65734957, -47.88969804, 94.08250679, -32.58782428, -46.47745964
3, 0.
*SHELL SECTION, ELSET=ELEM_307, COMPOSITE, ORIENTATION=ORI_307
1.20101571, 3, CFRP, 0.
** SOURCE_TET=1402
*ELSET, ELSET=ELEM_308
308
*ORIENTATION, NAME=ORI_308, SYSTEM=RECTANGULAR
93.28348512, -33.36022143, -77.94916837, 93.34108218, -33.30150963, -76.53734844
3, 0.
*SHELL SECTION, ELSET=ELEM_308, COMPOSITE, ORIENTATION=ORI_308
1.20107150, 3, CFRP, 0.
** SOURCE_TET=977
*ELSET, ELSET=ELEM_309
309
*ORIENTATION, NAME=ORI_309, SYSTEM=RECTANGULAR
90.47402264, -40.91757684, -64.44824017, 90.53244798, -40.86195530, -63.03632915
3, 0.
*SHELL SECTION, ELSET=ELEM_309, COMPOSITE, ORIENTATION=ORI_309
1.20103991, 3, CFRP, 0.
** SOURCE_TET=1337
*ELSET, ELSET=ELEM_310
310
*ORIENTATION, NAME=ORI_310, SYSTEM=RECTANGULAR
93.60660352, -33.55140988, 46.28477010, 93.74397735, -33.21500620, 47.65150379
3, 0.
*SHELL SECTION, ELSET=ELEM_310, COMPOSITE, ORIENTATION=ORI_310
1.20142317, 3, CFRP, 0.
** SOURCE_TET=1180
*ELSET, ELSET=ELEM_311
311
*ORIENTATION, NAME=ORI_311, SYSTEM=RECTANGULAR
93.31367825, -33.37172812, 76.46191025, 93.31395005, -33.29116950, 77.87382747
3, 0.
*SHELL SECTION, ELSET=ELEM_311, COMPOSITE, ORIENTATION=ORI_311
1.20107162, 3, CFRP, 0.
** SOURCE_TET=716
*ELSET, ELSET=ELEM_312
312
*ORIENTATION, NAME=ORI_312, SYSTEM=RECTANGULAR
90.10950817, -41.66975963, 62.95986308, 90.11823272, -41.59310498, 64.37197070
3, 0.
*SHELL SECTION, ELSET=ELEM_312, COMPOSITE, ORIENTATION=ORI_312
1.20104003, 3, CFRP, 0.
** SOURCE_TET=653
*ELSET, ELSET=ELEM_313
313
*ORIENTATION, NAME=ORI_313, SYSTEM=RECTANGULAR
88.63301287, 44.55354938, -32.12569472, 88.59851594, 44.61926498, -30.71343008
3, 0.
*SHELL SECTION, ELSET=ELEM_313, COMPOSITE, ORIENTATION=ORI_313
1.20100534, 3, CFRP, 0.
** SOURCE_TET=481
*ELSET, ELSET=ELEM_314
314
*ORIENTATION, NAME=ORI_314, SYSTEM=RECTANGULAR
77.49401352, 61.74804966, 0.72053877, 77.46100232, 61.81802405, 2.13263432
3, 0.
*SHELL SECTION, ELSET=ELEM_314, COMPOSITE, ORIENTATION=ORI_314
1.20100546, 3, CFRP, 0.
** SOURCE_TET=375
*ELSET, ELSET=ELEM_315
315
*ORIENTATION, NAME=ORI_315, SYSTEM=RECTANGULAR
72.34234849, 67.76716192, -16.45336431, 72.28423388, 67.81498521, -15.04115483
3, 0.
*SHELL SECTION, ELSET=ELEM_315, COMPOSITE, ORIENTATION=ORI_315
1.20100534, 3, CFRP, 0.
** SOURCE_TET=601
*ELSET, ELSET=ELEM_316
316
*ORIENTATION, NAME=ORI_316, SYSTEM=RECTANGULAR
78.88460214, 59.97880695, -32.25369261, 78.84103086, 60.03993268, -30.84147265
3, 0.
*SHELL SECTION, ELSET=ELEM_316, COMPOSITE, ORIENTATION=ORI_316
1.20100534, 3, CFRP, 0.
** SOURCE_TET=1616
*ELSET, ELSET=ELEM_317
317
*ORIENTATION, NAME=ORI_317, SYSTEM=RECTANGULAR
70.34300166, 69.93990264, 15.03890346, 70.27808045, 69.98089592, 16.45103121
3, 0.
*SHELL SECTION, ELSET=ELEM_317, COMPOSITE, ORIENTATION=ORI_317
1.20100546, 3, CFRP, 0.
** SOURCE_TET=1651
*ELSET, ELSET=ELEM_318
318
*ORIENTATION, NAME=ORI_318, SYSTEM=RECTANGULAR
89.19381538, 43.38272477, 31.74543122, 89.22944696, 43.47851275, 33.15594710
3, 0.
*SHELL SECTION, ELSET=ELEM_318, COMPOSITE, ORIENTATION=ORI_318
1.20100546, 3, CFRP, 0.
** SOURCE_TET=1561
*ELSET, ELSET=ELEM_319
319
*ORIENTATION, NAME=ORI_319, SYSTEM=RECTANGULAR
72.24140784, 68.07437010, 31.73098511, 72.23125346, 68.16460636, 33.14228037
3, 0.
*SHELL SECTION, ELSET=ELEM_319, COMPOSITE, ORIENTATION=ORI_319
1.20100546, 3, CFRP, 0.
** SOURCE_TET=178
*ELSET, ELSET=ELEM_320
320
*ORIENTATION, NAME=ORI_320, SYSTEM=RECTANGULAR
81.01737695, 57.27898817, 38.33832405, 80.92791549, 57.30599846, 39.74944668
3, 0.
*SHELL SECTION, ELSET=ELEM_320, COMPOSITE, ORIENTATION=ORI_320
1.20100546, 3, CFRP, 0.
** SOURCE_TET=743
*ELSET, ELSET=ELEM_321
321
*ORIENTATION, NAME=ORI_321, SYSTEM=RECTANGULAR
57.97767257, 80.26104521, -16.58410692, 57.92316961, 80.31384662, -15.17193079
3, 0.
*SHELL SECTION, ELSET=ELEM_321, COMPOSITE, ORIENTATION=ORI_321
1.20100534, 3, CFRP, 0.
** SOURCE_TET=136
*ELSET, ELSET=ELEM_322
322
*ORIENTATION, NAME=ORI_322, SYSTEM=RECTANGULAR
47.85741046, 86.62211036, 0.55963907, 47.77648041, 86.63187290, 1.97150132
3, 0.
*SHELL SECTION, ELSET=ELEM_322, COMPOSITE, ORIENTATION=ORI_322
1.20100546, 3, CFRP, 0.
** SOURCE_TET=466
*ELSET, ELSET=ELEM_323
323
*ORIENTATION, NAME=ORI_323, SYSTEM=RECTANGULAR
54.90351340, 82.11882210, 15.00752436, 54.85245839, 82.17911237, 16.41952948
3, 0.
*SHELL SECTION, ELSET=ELEM_323, COMPOSITE, ORIENTATION=ORI_323
1.20100546, 3, CFRP, 0.
** SOURCE_TET=111
*ELSET, ELSET=ELEM_324
324
*ORIENTATION, NAME=ORI_324, SYSTEM=RECTANGULAR
51.33615615, 84.81422735, -33.30510739, 51.26219978, 84.83686552, -31.89301038
3, 0.
*SHELL SECTION, ELSET=ELEM_324, COMPOSITE, ORIENTATION=ORI_324
1.20100534, 3, CFRP, 0.
** SOURCE_TET=1227
*ELSET, ELSET=ELEM_325
325
*ORIENTATION, NAME=ORI_325, SYSTEM=RECTANGULAR
74.34000358, 65.82217058, -45.98142007, 74.26352234, 65.85524323, -44.56966343
3, 0.
*SHELL SECTION, ELSET=ELEM_325, COMPOSITE, ORIENTATION=ORI_325
1.20100629, 3, CFRP, 0.
** SOURCE_TET=2646
*ELSET, ELSET=ELEM_326
326
*ORIENTATION, NAME=ORI_326, SYSTEM=RECTANGULAR
60.98422296, 77.97617460, -46.90287939, 60.94918993, 78.05298863, -45.49118811
3, 0.
*SHELL SECTION, ELSET=ELEM_326, COMPOSITE, ORIENTATION=ORI_326
1.20100534, 3, CFRP, 0.
** SOURCE_TET=351
*ELSET, ELSET=ELEM_327
327
*ORIENTATION, NAME=ORI_327, SYSTEM=RECTANGULAR
29.57769454, 94.43485073, 0.35709426, 29.51477973, 94.48569055, 1.76899264
3, 0.
*SHELL SECTION, ELSET=ELEM_327, COMPOSITE, ORIENTATION=ORI_327
1.20100546, 3, CFRP, 0.
** SOURCE_TET=63
*ELSET, ELSET=ELEM_328
328
*ORIENTATION, NAME=ORI_328, SYSTEM=RECTANGULAR
22.02107280, 96.50366148, -17.09305098, 21.94420352, 96.50415395, -15.68092815
3, 0.
*SHELL SECTION, ELSET=ELEM_328, COMPOSITE, ORIENTATION=ORI_328
1.20100534, 3, CFRP, 0.
** SOURCE_TET=497
*ELSET, ELSET=ELEM_329
329
*ORIENTATION, NAME=ORI_329, SYSTEM=RECTANGULAR
33.54589309, 92.99370615, -33.61213428, 33.48261089, 93.03988978, -32.20009234
3, 0.
*SHELL SECTION, ELSET=ELEM_329, COMPOSITE, ORIENTATION=ORI_329
1.20100534, 3, CFRP, 0.
** SOURCE_TET=799
*ELSET, ELSET=ELEM_330
330
*ORIENTATION, NAME=ORI_330, SYSTEM=RECTANGULAR
18.98764167, 97.38932011, 14.12323818, 18.91450461, 97.40207652, 15.53550169
3, 0.
*SHELL SECTION, ELSET=ELEM_330, COMPOSITE, ORIENTATION=ORI_330
1.20100546, 3, CFRP, 0.
** SOURCE_TET=392
*ELSET, ELSET=ELEM_331
331
*ORIENTATION, NAME=ORI_331, SYSTEM=RECTANGULAR
36.37944722, 92.46429898, 39.63735571, 36.29430712, 92.44984082, 41.04893006
3, 0.
*SHELL SECTION, ELSET=ELEM_331, COMPOSITE, ORIENTATION=ORI_331
1.20100546, 3, CFRP, 0.
** SOURCE_TET=1394
*ELSET, ELSET=ELEM_332
332
*ORIENTATION, NAME=ORI_332, SYSTEM=RECTANGULAR
23.18856301, 96.60444391, 31.14820321, 23.12822163, 96.66717274, 32.55973571
3, 0.
*SHELL SECTION, ELSET=ELEM_332, COMPOSITE, ORIENTATION=ORI_332
1.20100546, 3, CFRP, 0.
** SOURCE_TET=564
*ELSET, ELSET=ELEM_333
333
*ORIENTATION, NAME=ORI_333, SYSTEM=RECTANGULAR
49.61996442, 85.88151694, 31.83725253, 49.58895491, 85.97132472, 33.24827095
3, 0.
*SHELL SECTION, ELSET=ELEM_333, COMPOSITE, ORIENTATION=ORI_333
1.20100546, 3, CFRP, 0.
** SOURCE_TET=924
*ELSET, ELSET=ELEM_334
334
*ORIENTATION, NAME=ORI_334, SYSTEM=RECTANGULAR
2.49524960, 98.98222365, -17.21269103, 2.42070517, 99.00077359, -15.80056532
3, 0.
*SHELL SECTION, ELSET=ELEM_334, COMPOSITE, ORIENTATION=ORI_334
1.20100534, 3, CFRP, 0.
** SOURCE_TET=89
*ELSET, ELSET=ELEM_335
335
*ORIENTATION, NAME=ORI_335, SYSTEM=RECTANGULAR
-7.51171174, 98.92218027, -0.19264239, -7.58606840, 98.92327313, 1.21961464
3, 0.
*SHELL SECTION, ELSET=ELEM_335, COMPOSITE, ORIENTATION=ORI_335
1.20100546, 3, CFRP, 0.
** SOURCE_TET=1576
*ELSET, ELSET=ELEM_336
336
*ORIENTATION, NAME=ORI_336, SYSTEM=RECTANGULAR
1.39331453, 99.17146893, 13.69311274, 1.31864264, 99.17488125, 15.10534942
3, 0.
*SHELL SECTION, ELSET=ELEM_336, COMPOSITE, ORIENTATION=ORI_336
1.20100546, 3, CFRP, 0.
** SOURCE_TET=110
*ELSET, ELSET=ELEM_337
337
*ORIENTATION, NAME=ORI_337, SYSTEM=RECTANGULAR
-5.85239686, 98.90333324, -34.32550985, -5.92638807, 98.88899372, -32.91330601
3, 0.
*SHELL SECTION, ELSET=ELEM_337, COMPOSITE, ORIENTATION=ORI_337
1.20100534, 3, CFRP, 0.
** SOURCE_TET=2670
*ELSET, ELSET=ELEM_338
338
*ORIENTATION, NAME=ORI_338, SYSTEM=RECTANGULAR
5.57508715, 98.80924782, -48.93668956, 5.18545245, 98.83857004, -47.57752621
3, 0.
*SHELL SECTION, ELSET=ELEM_338, COMPOSITE, ORIENTATION=ORI_338
1.20141208, 3, CFRP, 0.
** SOURCE_TET=388
*ELSET, ELSET=ELEM_339
339
*ORIENTATION, NAME=ORI_339, SYSTEM=RECTANGULAR
25.30457669, 95.64796428, -48.21120994, 25.22607961, 95.64573540, -46.79917834
3, 0.
*SHELL SECTION, ELSET=ELEM_339, COMPOSITE, ORIENTATION=ORI_339
1.20101118, 3, CFRP, 0.
** SOURCE_TET=321
*ELSET, ELSET=ELEM_340
340
*ORIENTATION, NAME=ORI_340, SYSTEM=RECTANGULAR
-25.99500473, 95.50494801, 0.34841339, -26.06511001, 95.47929142, 1.76065522
3, 0.
*SHELL SECTION, ELSET=ELEM_340, COMPOSITE, ORIENTATION=ORI_340
1.20100546, 3, CFRP, 0.
** SOURCE_TET=19
*ELSET, ELSET=ELEM_341
341
*ORIENTATION, NAME=ORI_341, SYSTEM=RECTANGULAR
-35.58462581, 92.44367025, -16.88255473, -35.65586626, 92.42180215, -15.47030596
3, 0.
*SHELL SECTION, ELSET=ELEM_341, COMPOSITE, ORIENTATION=ORI_341
1.20100534, 3, CFRP, 0.
** SOURCE_TET=551
*ELSET, ELSET=ELEM_342
342
*ORIENTATION, NAME=ORI_342, SYSTEM=RECTANGULAR
-25.41652875, 95.56749057, -34.53645674, -25.49184029, 95.55936027, -33.12427330
3, 0.
*SHELL SECTION, ELSET=ELEM_342, COMPOSITE, ORIENTATION=ORI_342
1.20100534, 3, CFRP, 0.
** SOURCE_TET=18
*ELSET, ELSET=ELEM_343
343
*ORIENTATION, NAME=ORI_343, SYSTEM=RECTANGULAR
-34.95042115, 92.69732452, 17.80256968, -35.02415667, 92.68284440, 19.21478546
3, 0.
*SHELL SECTION, ELSET=ELEM_343, COMPOSITE, ORIENTATION=ORI_343
1.20100546, 3, CFRP, 0.
** SOURCE_TET=2530
*ELSET, ELSET=ELEM_344
344
*ORIENTATION, NAME=ORI_344, SYSTEM=RECTANGULAR
-22.62915286, 96.10642699, 34.38797744, -22.68503594, 96.03000024, 35.79901820
3, 0.
*SHELL SECTION, ELSET=ELEM_344, COMPOSITE, ORIENTATION=ORI_344
1.20100546, 3, CFRP, 0.
** SOURCE_TET=218
*ELSET, ELSET=ELEM_345
345
*ORIENTATION, NAME=ORI_345, SYSTEM=RECTANGULAR
-4.78467146, 99.28387415, 30.81952183, -4.85932165, 99.31733920, 32.23136724
3, 0.
*SHELL SECTION, ELSET=ELEM_345, COMPOSITE, ORIENTATION=ORI_345
1.20100546, 3, CFRP, 0.
** SOURCE_TET=429
*ELSET, ELSET=ELEM_346
346
*ORIENTATION, NAME=ORI_346, SYSTEM=RECTANGULAR
-53.08557296, 83.52266916, -16.71909578, -53.14603219, 83.47922181, -15.30684332
3, 0.
*SHELL SECTION, ELSET=ELEM_346, COMPOSITE, ORIENTATION=ORI_346
1.20100534, 3, CFRP, 0.
** SOURCE_TET=3
*ELSET, ELSET=ELEM_347
347
*ORIENTATION, NAME=ORI_347, SYSTEM=RECTANGULAR
-61.11251236, 77.94177306, 0.80780302, -61.17583165, 77.90190628, 2.22003576
3, 0.
*SHELL SECTION, ELSET=ELEM_347, COMPOSITE, ORIENTATION=ORI_347
1.20100546, 3, CFRP, 0.
** SOURCE_TET=573
*ELSET, ELSET=ELEM_348
348
*ORIENTATION, NAME=ORI_348, SYSTEM=RECTANGULAR
-52.48550920, 83.88824461, 18.09869399, -52.54204213, 83.83897565, 19.51091798
3, 0.
*SHELL SECTION, ELSET=ELEM_348, COMPOSITE, ORIENTATION=ORI_348
1.20100546, 3, CFRP, 0.
** SOURCE_TET=35
*ELSET, ELSET=ELEM_349
349
*ORIENTATION, NAME=ORI_349, SYSTEM=RECTANGULAR
-60.89976465, 78.17163510, -34.07370058, -60.95537049, 78.12115976, -32.66148239
3, 0.
*SHELL SECTION, ELSET=ELEM_349, COMPOSITE, ORIENTATION=ORI_349
1.20100534, 3, CFRP, 0.
** SOURCE_TET=2026
*ELSET, ELSET=ELEM_350
350
*ORIENTATION, NAME=ORI_350, SYSTEM=RECTANGULAR
-53.73714955, 83.36666619, -51.33903513, -53.78764794, 83.30885535, -49.92690630
3, 0.
*SHELL SECTION, ELSET=ELEM_350, COMPOSITE, ORIENTATION=ORI_350
1.20100713, 3, CFRP, 0.
** SOURCE_TET=4
*ELSET, ELSET=ELEM_351
351
*ORIENTATION, NAME=ORI_351, SYSTEM=RECTANGULAR
-35.83945713, 92.01114269, -51.63854297, -35.91775362, 92.01069146, -50.22649855
3, 0.
*SHELL SECTION, ELSET=ELEM_351, COMPOSITE, ORIENTATION=ORI_351
1.20101631, 3, CFRP, 0.
** SOURCE_TET=1312
*ELSET, ELSET=ELEM_352
352
*ORIENTATION, NAME=ORI_352, SYSTEM=RECTANGULAR
-74.96873473, 64.50309306, -34.12184138, -75.19190779, 64.23408152, -32.75150325
3, 0.
*SHELL SECTION, ELSET=ELEM_352, COMPOSITE, ORIENTATION=ORI_352
1.20141232, 3, CFRP, 0.
** SOURCE_TET=14
*ELSET, ELSET=ELEM_353
353
*ORIENTATION, NAME=ORI_353, SYSTEM=RECTANGULAR
-81.59519443, 56.11634811, -16.54824315, -81.64175835, 56.05776316, -15.13601102
3, 0.
*SHELL SECTION, ELSET=ELEM_353, COMPOSITE, ORIENTATION=ORI_353
1.20100534, 3, CFRP, 0.
** SOURCE_TET=514
*ELSET, ELSET=ELEM_354
354
*ORIENTATION, NAME=ORI_354, SYSTEM=RECTANGULAR
-75.31371235, 64.17765398, 0.91064440, -75.35662044, 64.11683186, 2.32289777
3, 0.
*SHELL SECTION, ELSET=ELEM_354, COMPOSITE, ORIENTATION=ORI_354
1.20100546, 3, CFRP, 0.
** SOURCE_TET=8
*ELSET, ELSET=ELEM_355
355
*ORIENTATION, NAME=ORI_355, SYSTEM=RECTANGULAR
-60.58252823, 78.26141880, 36.77764120, -60.64394950, 78.21875916, 38.18987616
3, 0.
*SHELL SECTION, ELSET=ELEM_355, COMPOSITE, ORIENTATION=ORI_355
1.20100546, 3, CFRP, 0.
** SOURCE_TET=2549
*ELSET, ELSET=ELEM_356
356
*ORIENTATION, NAME=ORI_356, SYSTEM=RECTANGULAR
-50.90681153, 84.62559352, 54.35896646, -50.95501177, 84.56342176, 55.77099033
3, 0.
*SHELL SECTION, ELSET=ELEM_356, COMPOSITE, ORIENTATION=ORI_356
1.20101273, 3, CFRP, 0.
** SOURCE_TET=2504
*ELSET, ELSET=ELEM_357
357
*ORIENTATION, NAME=ORI_357, SYSTEM=RECTANGULAR
-30.55205214, 93.78792097, 52.26423964, -30.63171710, 93.79504852, 53.67618960
3, 0.
*SHELL SECTION, ELSET=ELEM_357, COMPOSITE, ORIENTATION=ORI_357
1.20101845, 3, CFRP, 0.
** SOURCE_TET=512
*ELSET, ELSET=ELEM_358
358
*ORIENTATION, NAME=ORI_358, SYSTEM=RECTANGULAR
-61.31103068, 78.18916859, -67.60829880, -61.36935745, 78.14279348, -66.19604976
3, 0.
*SHELL SECTION, ELSET=ELEM_358, COMPOSITE, ORIENTATION=ORI_358
1.20104718, 3, CFRP, 0.
** SOURCE_TET=1490
*ELSET, ELSET=ELEM_359
359
*ORIENTATION, NAME=ORI_359, SYSTEM=RECTANGULAR
-91.06019587, 38.76020439, -16.70038202, -91.08544051, 38.69035444, -15.28812011
3, 0.
*SHELL SECTION, ELSET=ELEM_359, COMPOSITE, ORIENTATION=ORI_359
1.20100534, 3, CFRP, 0.
** SOURCE_TET=11
*ELSET, ELSET=ELEM_360
360
*ORIENTATION, NAME=ORI_360, SYSTEM=RECTANGULAR
-94.53752055, 29.58566004, -36.39333610, -94.56097750, 29.51449415, -34.98110907
3, 0.
*SHELL SECTION, ELSET=ELEM_360, COMPOSITE, ORIENTATION=ORI_360
1.20100534, 3, CFRP, 0.
** SOURCE_TET=6
*ELSET, ELSET=ELEM_361
361
*ORIENTATION, NAME=ORI_361, SYSTEM=RECTANGULAR
-94.54951493, 29.45282666, 0.66530361, -94.57628535, 29.38280139, 2.07752874
3, 0.
*SHELL SECTION, ELSET=ELEM_361, COMPOSITE, ORIENTATION=ORI_361
1.20100546, 3, CFRP, 0.
** SOURCE_TET=841
*ELSET, ELSET=ELEM_362
362
*ORIENTATION, NAME=ORI_362, SYSTEM=RECTANGULAR
-91.00492327, 38.87570753, 18.21020495, -91.03009320, 38.80588163, 19.62246938
3, 0.
*SHELL SECTION, ELSET=ELEM_362, COMPOSITE, ORIENTATION=ORI_362
1.20100546, 3, CFRP, 0.
** SOURCE_TET=16
*ELSET, ELSET=ELEM_363
363
*ORIENTATION, NAME=ORI_363, SYSTEM=RECTANGULAR
-81.40598940, 56.34147857, 18.30251061, -81.45295318, 56.28308968, 19.71473763
3, 0.
*SHELL SECTION, ELSET=ELEM_363, COMPOSITE, ORIENTATION=ORI_363
1.20100546, 3, CFRP, 0.
** SOURCE_TET=754
*ELSET, ELSET=ELEM_364
364
*ORIENTATION, NAME=ORI_364, SYSTEM=RECTANGULAR
-98.44368330, 10.00150445, 0.74181424, -98.44747748, 9.92739457, 2.15407955
3, 0.
*SHELL SECTION, ELSET=ELEM_364, COMPOSITE, ORIENTATION=ORI_364
1.20100546, 3, CFRP, 0.
** SOURCE_TET=21
*ELSET, ELSET=ELEM_365
365
*ORIENTATION, NAME=ORI_365, SYSTEM=RECTANGULAR
-98.95658054, -0.60029963, -16.74733827, -98.97065128, -0.67501489, -15.33516985
3, 0.
*SHELL SECTION, ELSET=ELEM_365, COMPOSITE, ORIENTATION=ORI_365
1.20100534, 3, CFRP, 0.
** SOURCE_TET=2585
*ELSET, ELSET=ELEM_366
366
*ORIENTATION, NAME=ORI_366, SYSTEM=RECTANGULAR
-98.33972183, 9.70906234, -36.57757473, -98.35365417, 9.49735138, -35.17936718
3, 0.
*SHELL SECTION, ELSET=ELEM_366, COMPOSITE, ORIENTATION=ORI_366
1.20141435, 3, CFRP, 0.
** SOURCE_TET=13
*ELSET, ELSET=ELEM_367
367
*ORIENTATION, NAME=ORI_367, SYSTEM=RECTANGULAR
-99.00582597, -0.14220362, 18.41620119, -99.00805472, -0.21724564, 19.82842062
3, 0.
*SHELL SECTION, ELSET=ELEM_367, COMPOSITE, ORIENTATION=ORI_367
1.20100546, 3, CFRP, 0.
** SOURCE_TET=15
*ELSET, ELSET=ELEM_368
368
*ORIENTATION, NAME=ORI_368, SYSTEM=RECTANGULAR
-94.68333222, 28.71495669, 36.10591038, -94.69499071, 28.63965823, 37.51806979
3, 0.
*SHELL SECTION, ELSET=ELEM_368, COMPOSITE, ORIENTATION=ORI_368
1.20100546, 3, CFRP, 0.
** SOURCE_TET=736
*ELSET, ELSET=ELEM_369
369
*ORIENTATION, NAME=ORI_369, SYSTEM=RECTANGULAR
-98.57746784, 9.10380208, 36.23645164, -98.59528853, 9.03058013, 37.64865593
3, 0.
*SHELL SECTION, ELSET=ELEM_369, COMPOSITE, ORIENTATION=ORI_369
1.20100546, 3, CFRP, 0.
** SOURCE_TET=2590
*ELSET, ELSET=ELEM_370
370
*ORIENTATION, NAME=ORI_370, SYSTEM=RECTANGULAR
-96.88225881, -20.39263745, -16.40653839, -96.85457672, -20.46216814, -14.99430640
3, 0.
*SHELL SECTION, ELSET=ELEM_370, COMPOSITE, ORIENTATION=ORI_370
1.20100534, 3, CFRP, 0.
** SOURCE_TET=17
*ELSET, ELSET=ELEM_371
371
*ORIENTATION, NAME=ORI_371, SYSTEM=RECTANGULAR
-94.52234744, -29.52105594, 1.19468582, -94.50605571, -29.59457305, 2.60689325
3, 0.
*SHELL SECTION, ELSET=ELEM_371, COMPOSITE, ORIENTATION=ORI_371
1.20100546, 3, CFRP, 0.
** SOURCE_TET=2581
*ELSET, ELSET=ELEM_372
372
*ORIENTATION, NAME=ORI_372, SYSTEM=RECTANGULAR
-96.96823914, -19.85371626, 18.52838856, -96.95145065, -19.92889083, 19.94050291
3, 0.
*SHELL SECTION, ELSET=ELEM_372, COMPOSITE, ORIENTATION=ORI_372
1.20100546, 3, CFRP, 0.
** SOURCE_TET=78
*ELSET, ELSET=ELEM_373
373
*ORIENTATION, NAME=ORI_373, SYSTEM=RECTANGULAR
-93.94816172, -31.19034804, -33.32222382, -93.94915824, -31.26838601, -31.91016537
3, 0.
*SHELL SECTION, ELSET=ELEM_373, COMPOSITE, ORIENTATION=ORI_373
1.20100534, 3, CFRP, 0.
** SOURCE_TET=1
*ELSET, ELSET=ELEM_374
374
*ORIENTATION, NAME=ORI_374, SYSTEM=RECTANGULAR
-98.67552910, -2.22205256, -55.45119546, -98.70171708, -2.29647272, -54.03918419
3, 0.
*SHELL SECTION, ELSET=ELEM_374, COMPOSITE, ORIENTATION=ORI_374
1.20102584, 3, CFRP, 0.
** SOURCE_TET=98
*ELSET, ELSET=ELEM_375
375
*ORIENTATION, NAME=ORI_375, SYSTEM=RECTANGULAR
-96.19318158, -23.23837236, -52.59738593, -96.15317632, -23.30457229, -51.18528921
3, 0.
*SHELL SECTION, ELSET=ELEM_375, COMPOSITE, ORIENTATION=ORI_375
1.20101225, 3, CFRP, 0.
** SOURCE_TET=659
*ELSET, ELSET=ELEM_376
376
*ORIENTATION, NAME=ORI_376, SYSTEM=RECTANGULAR
-86.83774565, -47.55307807, 0.96643406, -86.79626020, -47.61781586, 2.37855586
3, 0.
*SHELL SECTION, ELSET=ELEM_376, COMPOSITE, ORIENTATION=ORI_376
1.20100546, 3, CFRP, 0.
** SOURCE_TET=88
*ELSET, ELSET=ELEM_377
377
*ORIENTATION, NAME=ORI_377, SYSTEM=RECTANGULAR
-81.62306471, -56.13196306, -16.11576679, -81.58686465, -56.19837338, -14.70357728
3, 0.
*SHELL SECTION, ELSET=ELEM_377, COMPOSITE, ORIENTATION=ORI_377
1.20100534, 3, CFRP, 0.
** SOURCE_TET=1422
*ELSET, ELSET=ELEM_378
378
*ORIENTATION, NAME=ORI_378, SYSTEM=RECTANGULAR
-86.22189133, -48.83220993, -32.80286107, -86.16595434, -48.88472402, -31.39073029
3, 0.
*SHELL SECTION, ELSET=ELEM_378, COMPOSITE, ORIENTATION=ORI_378
1.20100534, 3, CFRP, 0.
** SOURCE_TET=660
*ELSET, ELSET=ELEM_379
379
*ORIENTATION, NAME=ORI_379, SYSTEM=RECTANGULAR
-82.68845486, -54.73709241, 14.60649231, -82.68086854, -54.82124235, 16.01817968
3, 0.
*SHELL SECTION, ELSET=ELEM_379, COMPOSITE, ORIENTATION=ORI_379
1.20100546, 3, CFRP, 0.
** SOURCE_TET=28
*ELSET, ELSET=ELEM_380
380
*ORIENTATION, NAME=ORI_380, SYSTEM=RECTANGULAR
-93.79824831, -31.23452972, 35.05795519, -93.74106512, -31.29562788, 36.46969068
3, 0.
*SHELL SECTION, ELSET=ELEM_380, COMPOSITE, ORIENTATION=ORI_380
1.20100546, 3, CFRP, 0.
** SOURCE_TET=1657
*ELSET, ELSET=ELEM_381
381
*ORIENTATION, NAME=ORI_381, SYSTEM=RECTANGULAR
-87.07159728, -47.91360410, 31.27674420, -86.95751562, -48.16003301, 32.66464123
3, 0.
*SHELL SECTION, ELSET=ELEM_381, COMPOSITE, ORIENTATION=ORI_381
1.20141101, 3, CFRP, 0.
** SOURCE_TET=737
*ELSET, ELSET=ELEM_382
382
*ORIENTATION, NAME=ORI_382, SYSTEM=RECTANGULAR
-68.96851738, -71.00145441, -16.04299533, -68.90897629, -71.04969657, -14.63085952
3, 0.
*SHELL SECTION, ELSET=ELEM_382, COMPOSITE, ORIENTATION=ORI_382
1.20100534, 3, CFRP, 0.
** SOURCE_TET=115
*ELSET, ELSET=ELEM_383
383
*ORIENTATION, NAME=ORI_383, SYSTEM=RECTANGULAR
-63.89525303, -75.88555088, 1.77401087, -63.86619487, -75.96657215, 3.18560259
3, 0.
*SHELL SECTION, ELSET=ELEM_383, COMPOSITE, ORIENTATION=ORI_383
1.20100546, 3, CFRP, 0.
** SOURCE_TET=2272
*ELSET, ELSET=ELEM_384
384
*ORIENTATION, NAME=ORI_384, SYSTEM=RECTANGULAR
-72.30514890, -68.12771497, 15.34058383, -72.23187807, -68.16157058, 16.75249218
3, 0.
*SHELL SECTION, ELSET=ELEM_384, COMPOSITE, ORIENTATION=ORI_384
1.20100546, 3, CFRP, 0.
** SOURCE_TET=12
*ELSET, ELSET=ELEM_385
385
*ORIENTATION, NAME=ORI_385, SYSTEM=RECTANGULAR
-60.36824605, -78.34965962, -33.43744176, -60.32683356, -78.41831833, -32.02550303
3, 0.
*SHELL SECTION, ELSET=ELEM_385, COMPOSITE, ORIENTATION=ORI_385
1.20100534, 3, CFRP, 0.
** SOURCE_TET=733
*ELSET, ELSET=ELEM_386
386
*ORIENTATION, NAME=ORI_386, SYSTEM=RECTANGULAR
-67.53468079, -72.04875686, -48.34043191, -67.47365863, -72.09150257, -46.92818225
3, 0.
*SHELL SECTION, ELSET=ELEM_386, COMPOSITE, ORIENTATION=ORI_386
1.20100534, 3, CFRP, 0.
** SOURCE_TET=386
*ELSET, ELSET=ELEM_387
387
*ORIENTATION, NAME=ORI_387, SYSTEM=RECTANGULAR
-80.86048599, -57.50705404, -47.63399768, -80.82490008, -57.57330223, -46.22178494
3, 0.
*SHELL SECTION, ELSET=ELEM_387, COMPOSITE, ORIENTATION=ORI_387
1.20100987, 3, CFRP, 0.
** SOURCE_TET=45
*ELSET, ELSET=ELEM_388
388
*ORIENTATION, NAME=ORI_388, SYSTEM=RECTANGULAR
-47.97455734, -86.36775380, 2.45174798, -47.88305298, -86.35676621, 3.86295535
3, 0.
*SHELL SECTION, ELSET=ELEM_388, COMPOSITE, ORIENTATION=ORI_388
1.20100546, 3, CFRP, 0.
** SOURCE_TET=135
*ELSET, ELSET=ELEM_389
389
*ORIENTATION, NAME=ORI_389, SYSTEM=RECTANGULAR
-36.29148621, -92.16897186, -15.51800041, -36.22963271, -92.21737949, -14.10596966
3, 0.
*SHELL SECTION, ELSET=ELEM_389, COMPOSITE, ORIENTATION=ORI_389
1.20100534, 3, CFRP, 0.
** SOURCE_TET=310
*ELSET, ELSET=ELEM_390
390
*ORIENTATION, NAME=ORI_390, SYSTEM=RECTANGULAR
-43.55153922, -88.94626106, -33.59079137, -43.47204209, -88.95668998, -32.17885247
3, 0.
*SHELL SECTION, ELSET=ELEM_390, COMPOSITE, ORIENTATION=ORI_390
1.20100534, 3, CFRP, 0.
** SOURCE_TET=272
*ELSET, ELSET=ELEM_391
391
*ORIENTATION, NAME=ORI_391, SYSTEM=RECTANGULAR
-39.67599257, -90.26259455, 19.73699288, -39.60862887, -90.30023726, 21.14909952
3, 0.
*SHELL SECTION, ELSET=ELEM_391, COMPOSITE, ORIENTATION=ORI_391
1.20100546, 3, CFRP, 0.
** SOURCE_TET=419
*ELSET, ELSET=ELEM_392
392
*ORIENTATION, NAME=ORI_392, SYSTEM=RECTANGULAR
-47.33235737, -86.72441831, 35.88895012, -47.30078455, -86.82401545, 37.29929886
3, 0.
*SHELL SECTION, ELSET=ELEM_392, COMPOSITE, ORIENTATION=ORI_392
1.20100546, 3, CFRP, 0.
** SOURCE_TET=253
*ELSET, ELSET=ELEM_393
393
*ORIENTATION, NAME=ORI_393, SYSTEM=RECTANGULAR
-63.31560239, -76.23609705, 40.82920631, -63.22344957, -76.24165092, 42.24040332
3, 0.
*SHELL SECTION, ELSET=ELEM_393, COMPOSITE, ORIENTATION=ORI_393
1.20100546, 3, CFRP, 0.
** SOURCE_TET=1208
*ELSET, ELSET=ELEM_394
394
*ORIENTATION, NAME=ORI_394, SYSTEM=RECTANGULAR
-72.38748940, -67.99129436, 32.15553116, -72.35196399, -68.06040285, 33.56760834
3, 0.
*SHELL SECTION, ELSET=ELEM_394, COMPOSITE, ORIENTATION=ORI_394
1.20100546, 3, CFRP, 0.
** SOURCE_TET=120
*ELSET, ELSET=ELEM_395
395
*ORIENTATION, NAME=ORI_395, SYSTEM=RECTANGULAR
-17.42145800, -97.04235933, 20.09485527, -17.34526462, -97.04985282, 21.50699493
3, 0.
*SHELL SECTION, ELSET=ELEM_395, COMPOSITE, ORIENTATION=ORI_395
1.20100546, 3, CFRP, 0.
** SOURCE_TET=34
*ELSET, ELSET=ELEM_396
396
*ORIENTATION, NAME=ORI_396, SYSTEM=RECTANGULAR
-6.55215563, -98.55274668, 3.10299059, -6.47528828, -98.54813858, 4.51510609
3, 0.
*SHELL SECTION, ELSET=ELEM_396, COMPOSITE, ORIENTATION=ORI_396
1.20100546, 3, CFRP, 0.
** SOURCE_TET=95
*ELSET, ELSET=ELEM_397
397
*ORIENTATION, NAME=ORI_397, SYSTEM=RECTANGULAR
-17.07935190, -97.40354878, -15.22462571, -17.00089961, -97.39424731, -13.81262050
3, 0.
*SHELL SECTION, ELSET=ELEM_397, COMPOSITE, ORIENTATION=ORI_397
1.20100534, 3, CFRP, 0.
** SOURCE_TET=208
*ELSET, ELSET=ELEM_398
398
*ORIENTATION, NAME=ORI_398, SYSTEM=RECTANGULAR
-31.91022111, -93.64688894, -47.89117787, -31.85950339, -93.72500184, -46.48003434
3, 0.
*SHELL SECTION, ELSET=ELEM_398, COMPOSITE, ORIENTATION=ORI_398
1.20100999, 3, CFRP, 0.
** SOURCE_TET=148
*ELSET, ELSET=ELEM_399
399
*ORIENTATION, NAME=ORI_399, SYSTEM=RECTANGULAR
-49.32333291, -85.77438314, -71.45684258, -49.29641369, -85.87293585, -70.04632398
3, 0.
*SHELL SECTION, ELSET=ELEM_399, COMPOSITE, ORIENTATION=ORI_399
1.20105255, 3, CFRP, 0.
** SOURCE_TET=739
*ELSET, ELSET=ELEM_400
400
*ORIENTATION, NAME=ORI_400, SYSTEM=RECTANGULAR
-34.49095016, -92.88394362, -63.75205530, -34.39521025, -92.83466705, -62.34194690
3, 0.
*SHELL SECTION, ELSET=ELEM_400, COMPOSITE, ORIENTATION=ORI_400
1.20103323, 3, CFRP, 0.
** SOURCE_TET=249
*ELSET, ELSET=ELEM_401
401
*ORIENTATION, NAME=ORI_401, SYSTEM=RECTANGULAR
-63.42712506, -76.22225185, -64.74347791, -63.32463692, -76.21473333, -63.33300294
3, 0.
*SHELL SECTION, ELSET=ELEM_401, COMPOSITE, ORIENTATION=ORI_401
1.20104277, 3, CFRP, 0.
** SOURCE_TET=1013
*ELSET, ELSET=ELEM_402
402
*ORIENTATION, NAME=ORI_402, SYSTEM=RECTANGULAR
-9.42449047, -98.45366050, 37.11978830, -9.35754065, -98.53143760, 38.53027348
3, 0.
*SHELL SECTION, ELSET=ELEM_402, COMPOSITE, ORIENTATION=ORI_402
1.20100546, 3, CFRP, 0.
** SOURCE_TET=65
*ELSET, ELSET=ELEM_403
403
*ORIENTATION, NAME=ORI_403, SYSTEM=RECTANGULAR
-38.24493268, -91.77229535, 55.36148493, -38.18335758, -91.81918015, 56.77357923
3, 0.
*SHELL SECTION, ELSET=ELEM_403, COMPOSITE, ORIENTATION=ORI_403
1.20102286, 3, CFRP, 0.
** SOURCE_TET=38
*ELSET, ELSET=ELEM_404
404
*ORIENTATION, NAME=ORI_404, SYSTEM=RECTANGULAR
-22.52424313, -96.56126036, 56.23725654, -22.44589725, -96.55522042, 57.64928537
3, 0.
*SHELL SECTION, ELSET=ELEM_404, COMPOSITE, ORIENTATION=ORI_404
1.20102406, 3, CFRP, 0.
** SOURCE_TET=154
*ELSET, ELSET=ELEM_405
405
*ORIENTATION, NAME=ORI_405, SYSTEM=RECTANGULAR
14.13698519, -97.99790747, 2.91828664, 14.21364257, -97.99628062, 4.33042013
3, 0.
*SHELL SECTION, ELSET=ELEM_405, COMPOSITE, ORIENTATION=ORI_405
1.20100546, 3, CFRP, 0.
** SOURCE_TET=801
*ELSET, ELSET=ELEM_406
406
*ORIENTATION, NAME=ORI_406, SYSTEM=RECTANGULAR
24.73901530, -95.95516827, 17.64085789, 24.80960945, -95.92447962, 19.05297497
3, 0.
*SHELL SECTION, ELSET=ELEM_406, COMPOSITE, ORIENTATION=ORI_406
1.20100546, 3, CFRP, 0.
** SOURCE_TET=2218
*ELSET, ELSET=ELEM_407
407
*ORIENTATION, NAME=ORI_407, SYSTEM=RECTANGULAR
19.74021455, -97.20242307, 33.70188949, 19.82464225, -97.24809550, 35.11284165
3, 0.
*SHELL SECTION, ELSET=ELEM_407, COMPOSITE, ORIENTATION=ORI_407
1.20100546, 3, CFRP, 0.
** SOURCE_TET=998
*ELSET, ELSET=ELEM_408
408
*ORIENTATION, NAME=ORI_408, SYSTEM=RECTANGULAR
6.37492347, -99.35971957, 41.79981513, 6.44682774, -99.32362556, 43.21173828
3, 0.
*SHELL SECTION, ELSET=ELEM_408, COMPOSITE, ORIENTATION=ORI_408
1.20100546, 3, CFRP, 0.
** SOURCE_TET=68
*ELSET, ELSET=ELEM_409
409
*ORIENTATION, NAME=ORI_409, SYSTEM=RECTANGULAR
23.63474705, -96.11251528, -14.80893550, 23.71043676, -96.10552070, -13.39676620
3, 0.
*SHELL SECTION, ELSET=ELEM_409, COMPOSITE, ORIENTATION=ORI_409
1.20100534, 3, CFRP, 0.
** SOURCE_TET=655
*ELSET, ELSET=ELEM_410
410
*ORIENTATION, NAME=ORI_410, SYSTEM=RECTANGULAR
15.54825443, -97.82505079, -31.92471859, 15.61808838, -97.77886793, -30.51298548
3, 0.
*SHELL SECTION, ELSET=ELEM_410, COMPOSITE, ORIENTATION=ORI_410
1.20100534, 3, CFRP, 0.
** SOURCE_TET=24
*ELSET, ELSET=ELEM_411
411
*ORIENTATION, NAME=ORI_411, SYSTEM=RECTANGULAR
-4.47320716, -98.72862349, -32.52997415, -4.38861714, -98.77350163, -31.11900623
3, 0.
*SHELL SECTION, ELSET=ELEM_411, COMPOSITE, ORIENTATION=ORI_411
1.20102048, 3, CFRP, 0.
** SOURCE_TET=721
*ELSET, ELSET=ELEM_412
412
*ORIENTATION, NAME=ORI_412, SYSTEM=RECTANGULAR
42.23810330, -89.56812633, -14.82450373, 42.30298624, -89.52677303, -13.41238472
3, 0.
*SHELL SECTION, ELSET=ELEM_412, COMPOSITE, ORIENTATION=ORI_412
1.20100534, 3, CFRP, 0.
** SOURCE_TET=288
*ELSET, ELSET=ELEM_413
413
*ORIENTATION, NAME=ORI_413, SYSTEM=RECTANGULAR
50.61841218, -85.15236251, 1.81275047, 50.68650314, -85.11796138, 3.22490492
3, 0.
*SHELL SECTION, ELSET=ELEM_413, COMPOSITE, ORIENTATION=ORI_413
1.20100546, 3, CFRP, 0.
** SOURCE_TET=366
*ELSET, ELSET=ELEM_414
414
*ORIENTATION, NAME=ORI_414, SYSTEM=RECTANGULAR
42.54725695, -89.45570211, 16.55082717, 42.62121725, -89.43485898, 17.96295161
3, 0.
*SHELL SECTION, ELSET=ELEM_414, COMPOSITE, ORIENTATION=ORI_414
1.20100546, 3, CFRP, 0.
** SOURCE_TET=93
*ELSET, ELSET=ELEM_415
415
*ORIENTATION, NAME=ORI_415, SYSTEM=RECTANGULAR
51.13452404, -84.89370755, -31.53564114, 51.20312779, -84.86121248, -30.12346637
3, 0.
*SHELL SECTION, ELSET=ELEM_415, COMPOSITE, ORIENTATION=ORI_415
1.20100534, 3, CFRP, 0.
** SOURCE_TET=900
*ELSET, ELSET=ELEM_416
416
*ORIENTATION, NAME=ORI_416, SYSTEM=RECTANGULAR
43.72001719, -88.96774005, -45.00820963, 43.77341937, -88.90855657, -43.59624451
3, 0.
*SHELL SECTION, ELSET=ELEM_416, COMPOSITE, ORIENTATION=ORI_416
1.20100594, 3, CFRP, 0.
** SOURCE_TET=2294
*ELSET, ELSET=ELEM_417
417
*ORIENTATION, NAME=ORI_417, SYSTEM=RECTANGULAR
26.78840015, -95.48240919, -45.41120416, 26.86606281, -95.49023740, -43.99914636
3, 0.
*SHELL SECTION, ELSET=ELEM_417, COMPOSITE, ORIENTATION=ORI_417
1.20100653, 3, CFRP, 0.
** SOURCE_TET=86
*ELSET, ELSET=ELEM_418
418
*ORIENTATION, NAME=ORI_418, SYSTEM=RECTANGULAR
65.87316191, -74.06363153, 1.74968726, 65.92685668, -74.01071686, 3.16189012
3, 0.
*SHELL SECTION, ELSET=ELEM_418, COMPOSITE, ORIENTATION=ORI_418
1.20100546, 3, CFRP, 0.
** SOURCE_TET=925
*ELSET, ELSET=ELEM_419
419
*ORIENTATION, NAME=ORI_419, SYSTEM=RECTANGULAR
71.72220305, -68.63992777, -14.97288240, 71.98044402, -68.37056685, -13.60878698
3, 0.
*SHELL SECTION, ELSET=ELEM_419, COMPOSITE, ORIENTATION=ORI_419
1.20141232, 3, CFRP, 0.
** SOURCE_TET=198
*ELSET, ELSET=ELEM_420
420
*ORIENTATION, NAME=ORI_420, SYSTEM=RECTANGULAR
65.37847479, -74.78445012, -31.49631265, 65.43161826, -74.73089974, -30.08411290
3, 0.
*SHELL SECTION, ELSET=ELEM_420, COMPOSITE, ORIENTATION=ORI_420
1.20100534, 3, CFRP, 0.
** SOURCE_TET=1378
*ELSET, ELSET=ELEM_421
421
*ORIENTATION, NAME=ORI_421, SYSTEM=RECTANGULAR
70.60716977, -69.86554709, 18.36553626, 70.69231487, -69.84346785, 19.77701167
3, 0.
*SHELL SECTION, ELSET=ELEM_421, COMPOSITE, ORIENTATION=ORI_421
1.20100546, 3, CFRP, 0.
** SOURCE_TET=141
*ELSET, ELSET=ELEM_422
422
*ORIENTATION, NAME=ORI_422, SYSTEM=RECTANGULAR
61.11525638, -78.21450434, 34.66612779, 61.13902320, -78.12623256, 36.07738369
3, 0.
*SHELL SECTION, ELSET=ELEM_422, COMPOSITE, ORIENTATION=ORI_422
1.20100546, 3, CFRP, 0.
** SOURCE_TET=1012
*ELSET, ELSET=ELEM_423
423
*ORIENTATION, NAME=ORI_423, SYSTEM=RECTANGULAR
48.35677442, -86.79698906, 32.78612156, 48.44503317, -86.80128310, 34.19757186
3, 0.
*SHELL SECTION, ELSET=ELEM_423, COMPOSITE, ORIENTATION=ORI_423
1.20100546, 3, CFRP, 0.
** SOURCE_TET=2615
*ELSET, ELSET=ELEM_424
424
*ORIENTATION, NAME=ORI_424, SYSTEM=RECTANGULAR
-75.16714739, 64.33880060, 36.87756960, -75.21550893, 64.27780702, 38.28963934
3, 0.
*SHELL SECTION, ELSET=ELEM_424, COMPOSITE, ORIENTATION=ORI_424
1.20100546, 3, CFRP, 0.
** SOURCE_TET=2539
*ELSET, ELSET=ELEM_425
425
*ORIENTATION, NAME=ORI_425, SYSTEM=RECTANGULAR
-29.60934384, 94.38842336, -68.87297257, -29.65547861, 94.29585624, -67.46254607
3, 0.
*SHELL SECTION, ELSET=ELEM_425, COMPOSITE, ORIENTATION=ORI_425
1.20105660, 3, CFRP, 0.
** SOURCE_TET=2527
*ELSET, ELSET=ELEM_426
426
*ORIENTATION, NAME=ORI_426, SYSTEM=RECTANGULAR
-98.39130888, 7.31410185, -73.19570558, -98.36264744, 7.12267008, -71.79480144
3, 0.
*SHELL SECTION, ELSET=ELEM_426, COMPOSITE, ORIENTATION=ORI_426
1.20147419, 3, CFRP, 0.
** SOURCE_TET=202
*ELSET, ELSET=ELEM_427
427
*ORIENTATION, NAME=ORI_427, SYSTEM=RECTANGULAR
81.97794263, -56.23660786, -15.36141066, 82.03115013, -56.18254619, -13.94923280
3, 0.
*SHELL SECTION, ELSET=ELEM_427, COMPOSITE, ORIENTATION=ORI_427
1.20100534, 3, CFRP, 0.
** SOURCE_TET=73
*ELSET, ELSET=ELEM_428
428
*ORIENTATION, NAME=ORI_428, SYSTEM=RECTANGULAR
80.93562205, -57.37141976, 17.16360046, 80.93719864, -57.28285802, 18.57503743
3, 0.
*SHELL SECTION, ELSET=ELEM_428, COMPOSITE, ORIENTATION=ORI_428
1.20100546, 3, CFRP, 0.
** SOURCE_TET=1072
*ELSET, ELSET=ELEM_429
429
*ORIENTATION, NAME=ORI_429, SYSTEM=RECTANGULAR
86.43164228, -49.37307312, 0.03339041, 86.46812446, -49.30848764, 1.44565730
3, 0.
*SHELL SECTION, ELSET=ELEM_429, COMPOSITE, ORIENTATION=ORI_429
1.20100546, 3, CFRP, 0.
** SOURCE_TET=1472
*ELSET, ELSET=ELEM_430
430
*ORIENTATION, NAME=ORI_430, SYSTEM=RECTANGULAR
71.27448346, -69.28954721, -45.74962680, 71.32815769, -69.23817347, -44.33736626
3, 0.
*SHELL SECTION, ELSET=ELEM_430, COMPOSITE, ORIENTATION=ORI_430
1.20100701, 3, CFRP, 0.
** SOURCE_TET=2038
*ELSET, ELSET=ELEM_431
431
*ORIENTATION, NAME=ORI_431, SYSTEM=RECTANGULAR
81.01566242, -57.64368062, -45.62461903, 81.05737980, -57.58243266, -44.21234840
3, 0.
*SHELL SECTION, ELSET=ELEM_431, COMPOSITE, ORIENTATION=ORI_431
1.20100534, 3, CFRP, 0.
** SOURCE_TET=1832
*ELSET, ELSET=ELEM_432
432
*ORIENTATION, NAME=ORI_432, SYSTEM=RECTANGULAR
85.37664246, -50.98534110, -31.90242493, 85.43115009, -50.88649232, -30.49272360
3, 0.
*SHELL SECTION, ELSET=ELEM_432, COMPOSITE, ORIENTATION=ORI_432
1.20105827, 3, CFRP, 0.
** SOURCE_TET=138
*ELSET, ELSET=ELEM_433
433
*ORIENTATION, NAME=ORI_433, SYSTEM=RECTANGULAR
66.50946008, -73.30917475, 48.20740597, 66.55189017, -73.24372824, 49.61946703
3, 0.
*SHELL SECTION, ELSET=ELEM_433, COMPOSITE, ORIENTATION=ORI_433
1.20101535, 3, CFRP, 0.
** SOURCE_TET=1486
*ELSET, ELSET=ELEM_434
434
*ORIENTATION, NAME=ORI_434, SYSTEM=RECTANGULAR
78.91253179, -60.34689265, 46.81809394, 78.97072223, -60.29758408, 48.23024922
3, 0.
*SHELL SECTION, ELSET=ELEM_434, COMPOSITE, ORIENTATION=ORI_434
1.20100880, 3, CFRP, 0.
** SOURCE_TET=704
*ELSET, ELSET=ELEM_435
435
*ORIENTATION, NAME=ORI_435, SYSTEM=RECTANGULAR
83.92085918, -52.82269618, 32.07303615, 83.98962926, -52.77951809, 33.48491657
3, 0.
*SHELL SECTION, ELSET=ELEM_435, COMPOSITE, ORIENTATION=ORI_435
1.20100546, 3, CFRP, 0.
** SOURCE_TET=56
*ELSET, ELSET=ELEM_436
436
*ORIENTATION, NAME=ORI_436, SYSTEM=RECTANGULAR
-57.97939767, 80.05095898, 71.12627985, -58.06720788, 80.04774467, 72.53776100
3, 0.
*SHELL SECTION, ELSET=ELEM_436, COMPOSITE, ORIENTATION=ORI_436
1.20105362, 3, CFRP, 0.
** SOURCE_TET=2603
*ELSET, ELSET=ELEM_437
437
*ORIENTATION, NAME=ORI_437, SYSTEM=RECTANGULAR
-12.01656022, -98.11069779, -47.11962912, -11.93352420, -98.05567465, -45.70892807
3, 0.
*SHELL SECTION, ELSET=ELEM_437, COMPOSITE, ORIENTATION=ORI_437
1.20100892, 3, CFRP, 0.
** SOURCE_TET=1797
*ELSET, ELSET=ELEM_438
438
*ORIENTATION, NAME=ORI_438, SYSTEM=RECTANGULAR
91.55674208, -38.97805276, 30.69754114, 91.56305108, -38.90095137, 32.10963731
3, 0.
*SHELL SECTION, ELSET=ELEM_438, COMPOSITE, ORIENTATION=ORI_438
1.20100546, 3, CFRP, 0.
** SOURCE_TET=1788
*ELSET, ELSET=ELEM_439
439
*ORIENTATION, NAME=ORI_439, SYSTEM=RECTANGULAR
91.82373713, -38.45448584, -32.20901930, 91.85763523, -38.38826040, -30.79676398
3, 0.
*SHELL SECTION, ELSET=ELEM_439, COMPOSITE, ORIENTATION=ORI_439
1.20100534, 3, CFRP, 0.
** SOURCE_TET=774
*ELSET, ELSET=ELEM_440
440
*ORIENTATION, NAME=ORI_440, SYSTEM=RECTANGULAR
35.40339543, 92.78573494, 59.73392470, 35.35170960, 92.85538333, 61.14547621
3, 0.
*SHELL SECTION, ELSET=ELEM_440, COMPOSITE, ORIENTATION=ORI_440
1.20102882, 3, CFRP, 0.
** SOURCE_TET=1419
*ELSET, ELSET=ELEM_441
441
*ORIENTATION, NAME=ORI_441, SYSTEM=RECTANGULAR
8.40037957, 98.85135376, 41.59948583, 8.32207340, 98.79120989, 43.01024834
3, 0.
*SHELL SECTION, ELSET=ELEM_441, COMPOSITE, ORIENTATION=ORI_441
1.20100546, 3, CFRP, 0.
** SOURCE_TET=2190
*ELSET, ELSET=ELEM_442
442
*ORIENTATION, NAME=ORI_442, SYSTEM=RECTANGULAR
61.21590311, 78.29850818, 42.05523218, 61.12399627, 78.30023965, 43.46645510
3, 0.
*SHELL SECTION, ELSET=ELEM_442, COMPOSITE, ORIENTATION=ORI_442
1.20100546, 3, CFRP, 0.
** SOURCE_TET=2626
*ELSET, ELSET=ELEM_443
443
*ORIENTATION, NAME=ORI_443, SYSTEM=RECTANGULAR
81.83604053, 55.89214158, 58.78389074, 81.82583712, 55.97519496, 60.19562656
3, 0.
*SHELL SECTION, ELSET=ELEM_443, COMPOSITE, ORIENTATION=ORI_443
1.20104313, 3, CFRP, 0.
** SOURCE_TET=604
*ELSET, ELSET=ELEM_444
444
*ORIENTATION, NAME=ORI_444, SYSTEM=RECTANGULAR
31.58115480, 94.11638901, -64.01647848, 31.49118365, 94.08098554, -62.60557388
3, 0.
*SHELL SECTION, ELSET=ELEM_444, COMPOSITE, ORIENTATION=ORI_444
1.20103419, 3, CFRP, 0.
** SOURCE_TET=405
*ELSET, ELSET=ELEM_445
445
*ORIENTATION, NAME=ORI_445, SYSTEM=RECTANGULAR
34.62506238, -92.70895640, 59.98938208, 34.71977802, -92.75181611, 61.39976926
3, 0.
*SHELL SECTION, ELSET=ELEM_445, COMPOSITE, ORIENTATION=ORI_445
1.20103049, 3, CFRP, 0.
** SOURCE_TET=1140
*ELSET, ELSET=ELEM_446
446
*ORIENTATION, NAME=ORI_446, SYSTEM=RECTANGULAR
25.73908329, -95.86537216, -61.89548556, 25.80206710, -95.81017889, -60.48375373
3, 0.
*SHELL SECTION, ELSET=ELEM_446, COMPOSITE, ORIENTATION=ORI_446
1.20103049, 3, CFRP, 0.
** SOURCE_TET=847
*ELSET, ELSET=ELEM_447
447
*ORIENTATION, NAME=ORI_447, SYSTEM=RECTANGULAR
34.72174287, -92.77154620, 43.27187451, 34.75447445, -92.65318097, 44.68074580
3, 0.
*SHELL SECTION, ELSET=ELEM_447, COMPOSITE, ORIENTATION=ORI_447
1.20100617, 3, CFRP, 0.
** SOURCE_TET=2137
*ELSET, ELSET=ELEM_448
448
*ORIENTATION, NAME=ORI_448, SYSTEM=RECTANGULAR
-84.28129667, -52.86853665, 60.23872147, -84.26628722, -52.94653270, 61.65070282
3, 0.
*SHELL SECTION, ELSET=ELEM_448, COMPOSITE, ORIENTATION=ORI_448
1.20103049, 3, CFRP, 0.
** SOURCE_TET=2153
*ELSET, ELSET=ELEM_449
449
*ORIENTATION, NAME=ORI_449, SYSTEM=RECTANGULAR
-82.02264544, -56.32316028, 42.10780454, -81.96522002, -56.37420973, 43.51992928
3, 0.
*SHELL SECTION, ELSET=ELEM_449, COMPOSITE, ORIENTATION=ORI_449
1.20100546, 3, CFRP, 0.
** SOURCE_TET=1142
*ELSET, ELSET=ELEM_450
450
*ORIENTATION, NAME=ORI_450, SYSTEM=RECTANGULAR
80.36649603, 58.45761262, -62.43296897, 80.32146579, 58.51706423, -61.02072332
3, 0.
*SHELL SECTION, ELSET=ELEM_450, COMPOSITE, ORIENTATION=ORI_450
1.20103037, 3, CFRP, 0.
** SOURCE_TET=1620
*ELSET, ELSET=ELEM_451
451
*ORIENTATION, NAME=ORI_451, SYSTEM=RECTANGULAR
83.95066926, -53.58235471, -62.60874953, 84.10361798, -53.31540932, -61.22840651
3, 0.
*SHELL SECTION, ELSET=ELEM_451, COMPOSITE, ORIENTATION=ORI_451
1.20143449, 3, CFRP, 0.
** SOURCE_TET=1446
*ELSET, ELSET=ELEM_452
452
*ORIENTATION, NAME=ORI_452, SYSTEM=RECTANGULAR
83.08742289, -54.83194480, 61.99506611, 83.14443780, -54.78112122, 63.40721563
3, 0.
*SHELL SECTION, ELSET=ELEM_452, COMPOSITE, ORIENTATION=ORI_452
1.20103097, 3, CFRP, 0.
** SOURCE_TET=1955
*ELSET, ELSET=ELEM_453
453
*ORIENTATION, NAME=ORI_453, SYSTEM=RECTANGULAR
48.03787635, 44.45877760, 184.29293870, 47.22082707, 43.75545703, 185.20823682
3, 0.
*SHELL SECTION, ELSET=ELEM_453, COMPOSITE, ORIENTATION=ORI_453
1.20265532, 3, CFRP, 0.
** SOURCE_TET=2147
*ELSET, ELSET=ELEM_454
454
*ORIENTATION, NAME=ORI_454, SYSTEM=RECTANGULAR
40.69867088, 39.69964786, 191.24691134, 39.81264034, 38.97928697, 192.08119551
3, 0.
*SHELL SECTION, ELSET=ELEM_454, COMPOSITE, ORIENTATION=ORI_454
1.20297432, 3, CFRP, 0.
** SOURCE_TET=2286
*ELSET, ELSET=ELEM_455
455
*ORIENTATION, NAME=ORI_455, SYSTEM=RECTANGULAR
58.67680716, 37.72877803, 180.31018806, 57.77327246, 37.27134973, 181.29729717
3, 0.
*SHELL SECTION, ELSET=ELEM_455, COMPOSITE, ORIENTATION=ORI_455
1.20251536, 3, CFRP, 0.
** SOURCE_TET=2408
*ELSET, ELSET=ELEM_456
456
*ORIENTATION, NAME=ORI_456, SYSTEM=RECTANGULAR
40.88883982, 30.61438182, 195.23793447, 39.88799453, 29.95419677, 195.98791074
3, 0.
*SHELL SECTION, ELSET=ELEM_456, COMPOSITE, ORIENTATION=ORI_456
1.20311213, 3, CFRP, 0.
** SOURCE_TET=883
*ELSET, ELSET=ELEM_457
457
*ORIENTATION, NAME=ORI_457, SYSTEM=RECTANGULAR
62.57668102, -28.01945904, 181.48732361, 61.67971437, -27.51917280, 182.45951933
3, 0.
*SHELL SECTION, ELSET=ELEM_457, COMPOSITE, ORIENTATION=ORI_457
1.20255995, 3, CFRP, 0.
** SOURCE_TET=2425
*ELSET, ELSET=ELEM_458
458
*ORIENTATION, NAME=ORI_458, SYSTEM=RECTANGULAR
52.31525254, -34.87137985, 186.83819439, 51.41660098, -34.21553032, 187.71128473
3, 0.
*SHELL SECTION, ELSET=ELEM_458, COMPOSITE, ORIENTATION=ORI_458
1.20271575, 3, CFRP, 0.
** SOURCE_TET=1714
*ELSET, ELSET=ELEM_459
459
*ORIENTATION, NAME=ORI_459, SYSTEM=RECTANGULAR
45.20623239, -31.55925738, 192.64324596, 44.33519581, -30.78308264, 193.44252566
3, 0.
*SHELL SECTION, ELSET=ELEM_459, COMPOSITE, ORIENTATION=ORI_459
1.20293558, 3, CFRP, 0.
** SOURCE_TET=1835
*ELSET, ELSET=ELEM_460
460
*ORIENTATION, NAME=ORI_460, SYSTEM=RECTANGULAR
43.69237615, -23.36603903, 196.28240612, 42.68893922, -22.66995766, 196.99555760
3, 0.
*SHELL SECTION, ELSET=ELEM_460, COMPOSITE, ORIENTATION=ORI_460
1.20320308, 3, CFRP, 0.
** SOURCE_TET=611
*ELSET, ELSET=ELEM_461
461
*ORIENTATION, NAME=ORI_461, SYSTEM=RECTANGULAR
-49.96047871, -77.77582059, 143.57907128, -49.62609651, -77.36963025, 144.89177763
3, 0.
*SHELL SECTION, ELSET=ELEM_461, COMPOSITE, ORIENTATION=ORI_461
1.20131040, 3, CFRP, 0.
** SOURCE_TET=1493
*ELSET, ELSET=ELEM_462
462
*ORIENTATION, NAME=ORI_462, SYSTEM=RECTANGULAR
-59.65425988, -67.85164237, 149.99396440, -59.23258675, -67.47126389, 151.28914932
3, 0.
*SHELL SECTION, ELSET=ELEM_462, COMPOSITE, ORIENTATION=ORI_462
1.20162201, 3, CFRP, 0.
** SOURCE_TET=1145
*ELSET, ELSET=ELEM_463
463
*ORIENTATION, NAME=ORI_463, SYSTEM=RECTANGULAR
-68.93011787, -64.22853409, 140.79167070, -68.53991566, -63.96957048, 142.12609196
3, 0.
*SHELL SECTION, ELSET=ELEM_463, COMPOSITE, ORIENTATION=ORI_463
1.20126057, 3, CFRP, 0.
** SOURCE_TET=582
*ELSET, ELSET=ELEM_464
464
*ORIENTATION, NAME=ORI_464, SYSTEM=RECTANGULAR
-8.51262224, -19.75078019, 207.50863932, -7.84432073, -18.53936298, 207.80162639
3, 0.
*SHELL SECTION, ELSET=ELEM_464, COMPOSITE, ORIENTATION=ORI_464
1.20362222, 3, CFRP, 0.
** SOURCE_TET=2569
*ELSET, ELSET=ELEM_465
465
*ORIENTATION, NAME=ORI_465, SYSTEM=RECTANGULAR
-13.71803411, -18.32864843, 207.22081207, -12.85352932, -17.25606650, 207.54049858
3, 0.
*SHELL SECTION, ELSET=ELEM_465, COMPOSITE, ORIENTATION=ORI_465
1.20362222, 3, CFRP, 0.
** SOURCE_TET=1525
*ELSET, ELSET=ELEM_466
466
*ORIENTATION, NAME=ORI_466, SYSTEM=RECTANGULAR
-22.07187731, -14.22227377, 206.29850659, -20.85232470, -13.61413927, 206.67647997
3, 0.
*SHELL SECTION, ELSET=ELEM_466, COMPOSITE, ORIENTATION=ORI_466
1.20362222, 3, CFRP, 0.
** SOURCE_TET=586
*ELSET, ELSET=ELEM_467
467
*ORIENTATION, NAME=ORI_467, SYSTEM=RECTANGULAR
-22.51078276, -1.14824469, 207.18633525, -21.12936501, -1.20754090, 207.48326783
3, 0.
*SHELL SECTION, ELSET=ELEM_467, COMPOSITE, ORIENTATION=ORI_467
1.20362222, 3, CFRP, 0.
** SOURCE_TET=550
*ELSET, ELSET=ELEM_468
468
*ORIENTATION, NAME=ORI_468, SYSTEM=RECTANGULAR
-17.63697875, -1.29094782, 208.21749305, -16.25120163, -1.33876031, 208.49558609
3, 0.
*SHELL SECTION, ELSET=ELEM_468, COMPOSITE, ORIENTATION=ORI_468
1.20362222, 3, CFRP, 0.
** SOURCE_TET=400
*ELSET, ELSET=ELEM_469
469
*ORIENTATION, NAME=ORI_469, SYSTEM=RECTANGULAR
-26.96098015, -5.76167175, 205.87412954, -25.61785516, -5.52732246, 206.24975656
3, 0.
*SHELL SECTION, ELSET=ELEM_469, COMPOSITE, ORIENTATION=ORI_469
1.20362222, 3, CFRP, 0.
** SOURCE_TET=2592
*ELSET, ELSET=ELEM_470
470
*ORIENTATION, NAME=ORI_470, SYSTEM=RECTANGULAR
-26.95814593, -11.59189887, 205.33570201, -25.67285651, -11.14969687, 205.72619977
3, 0.
*SHELL SECTION, ELSET=ELEM_470, COMPOSITE, ORIENTATION=ORI_470
1.20362222, 3, CFRP, 0.
** SOURCE_TET=576
*ELSET, ELSET=ELEM_471
471
*ORIENTATION, NAME=ORI_471, SYSTEM=RECTANGULAR
5.49052439, -22.79438829, 206.97862345, 5.27565338, -21.42372680, 207.25269924
3, 0.
*SHELL SECTION, ELSET=ELEM_471, COMPOSITE, ORIENTATION=ORI_471
1.20362222, 3, CFRP, 0.
** SOURCE_TET=401
*ELSET, ELSET=ELEM_472
472
*ORIENTATION, NAME=ORI_472, SYSTEM=RECTANGULAR
4.88799699, -18.88868422, 207.80774828, 4.66524435, -17.53123852, 208.13595923
3, 0.
*SHELL SECTION, ELSET=ELEM_472, COMPOSITE, ORIENTATION=ORI_472
1.20362222, 3, CFRP, 0.
** SOURCE_TET=871
*ELSET, ELSET=ELEM_473
473
*ORIENTATION, NAME=ORI_473, SYSTEM=RECTANGULAR
-6.66523119, -25.03992084, 206.39750727, -6.25685295, -23.73418492, 206.75567052
3, 0.
*SHELL SECTION, ELSET=ELEM_473, COMPOSITE, ORIENTATION=ORI_473
1.20362222, 3, CFRP, 0.
** SOURCE_TET=1724
*ELSET, ELSET=ELEM_474
474
*ORIENTATION, NAME=ORI_474, SYSTEM=RECTANGULAR
-0.84224321, -26.29023370, 206.27981187, -0.66163992, -24.93580272, 206.64436524
3, 0.
*SHELL SECTION, ELSET=ELEM_474, COMPOSITE, ORIENTATION=ORI_474
1.20362222, 3, CFRP, 0.
** SOURCE_TET=1922
*ELSET, ELSET=ELEM_475
475
*ORIENTATION, NAME=ORI_475, SYSTEM=RECTANGULAR
-17.25674049, -22.34767089, 205.75756549, -16.30889072, -21.37576913, 206.15378232
3, 0.
*SHELL SECTION, ELSET=ELEM_475, COMPOSITE, ORIENTATION=ORI_475
1.20362222, 3, CFRP, 0.
** SOURCE_TET=2335
*ELSET, ELSET=ELEM_476
476
*ORIENTATION, NAME=ORI_476, SYSTEM=RECTANGULAR
-22.60404707, -20.44975395, 205.02255456, -21.53992978, -19.62049483, 205.44679944
3, 0.
*SHELL SECTION, ELSET=ELEM_476, COMPOSITE, ORIENTATION=ORI_476
1.20362222, 3, CFRP, 0.
** SOURCE_TET=286
*ELSET, ELSET=ELEM_477
477
*ORIENTATION, NAME=ORI_477, SYSTEM=RECTANGULAR
-62.54484037, 65.29877748, 149.98354847, -62.19964978, 64.82045294, 151.26886910
3, 0.
*SHELL SECTION, ELSET=ELEM_477, COMPOSITE, ORIENTATION=ORI_477
1.20158195, 3, CFRP, 0.
** SOURCE_TET=1886
*ELSET, ELSET=ELEM_478
478
*ORIENTATION, NAME=ORI_478, SYSTEM=RECTANGULAR
-53.63293188, 73.24432935, 149.98742077, -53.34387564, 72.74072113, 151.27692658
3, 0.
*SHELL SECTION, ELSET=ELEM_478, COMPOSITE, ORIENTATION=ORI_478
1.20157981, 3, CFRP, 0.
** SOURCE_TET=139
*ELSET, ELSET=ELEM_479
479
*ORIENTATION, NAME=ORI_479, SYSTEM=RECTANGULAR
-47.32825873, 80.71160610, 141.98463362, -47.21325625, 80.35691214, 143.34880612
3, 0.
*SHELL SECTION, ELSET=ELEM_479, COMPOSITE, ORIENTATION=ORI_479
1.20129907, 3, CFRP, 0.
** SOURCE_TET=344
*ELSET, ELSET=ELEM_480
480
*ORIENTATION, NAME=ORI_480, SYSTEM=RECTANGULAR
-72.15942990, 60.88141717, 139.45531288, -71.90073752, 60.55981053, 140.80795749
3, 0.
*SHELL SECTION, ELSET=ELEM_480, COMPOSITE, ORIENTATION=ORI_480
1.20121861, 3, CFRP, 0.
** SOURCE_TET=1432
*ELSET, ELSET=ELEM_481
481
*ORIENTATION, NAME=ORI_481, SYSTEM=RECTANGULAR
-9.63339107, 19.30849234, 207.49357893, -9.19874036, 17.99495506, 207.78632208
3, 0.
*SHELL SECTION, ELSET=ELEM_481, COMPOSITE, ORIENTATION=ORI_481
1.20362222, 3, CFRP, 0.
** SOURCE_TET=1283
*ELSET, ELSET=ELEM_482
482
*ORIENTATION, NAME=ORI_482, SYSTEM=RECTANGULAR
-15.51602165, 17.55832988, 207.05700928, -14.69741409, 16.45241336, 207.38385835
3, 0.
*SHELL SECTION, ELSET=ELEM_482, COMPOSITE, ORIENTATION=ORI_482
1.20362222, 3, CFRP, 0.
** SOURCE_TET=2398
*ELSET, ELSET=ELEM_483
483
*ORIENTATION, NAME=ORI_483, SYSTEM=RECTANGULAR
-22.77826477, 9.67243007, 206.74166168, -21.55765569, 9.04317868, 207.07953171
3, 0.
*SHELL SECTION, ELSET=ELEM_483, COMPOSITE, ORIENTATION=ORI_483
1.20362222, 3, CFRP, 0.
** SOURCE_TET=1680
*ELSET, ELSET=ELEM_484
484
*ORIENTATION, NAME=ORI_484, SYSTEM=RECTANGULAR
-25.16828587, 4.35831858, 206.53796803, -23.82546962, 4.07372412, 206.87833623
3, 0.
*SHELL SECTION, ELSET=ELEM_484, COMPOSITE, ORIENTATION=ORI_484
1.20362222, 3, CFRP, 0.
** SOURCE_TET=1710
*ELSET, ELSET=ELEM_485
485
*ORIENTATION, NAME=ORI_485, SYSTEM=RECTANGULAR
3.86653775, 21.14314825, 207.46414310, 3.48555642, 19.80507828, 207.71795797
3, 0.
*SHELL SECTION, ELSET=ELEM_485, COMPOSITE, ORIENTATION=ORI_485
1.20362222, 3, CFRP, 0.
** SOURCE_TET=723
*ELSET, ELSET=ELEM_486
486
*ORIENTATION, NAME=ORI_486, SYSTEM=RECTANGULAR
3.24489813, 17.22639332, 208.21684121, 2.85048060, 15.89947193, 208.50617565
3, 0.
*SHELL SECTION, ELSET=ELEM_486, COMPOSITE, ORIENTATION=ORI_486
1.20362222, 3, CFRP, 0.
** SOURCE_TET=2375
*ELSET, ELSET=ELEM_487
487
*ORIENTATION, NAME=ORI_487, SYSTEM=RECTANGULAR
-7.28766553, 24.45855973, 206.50960094, -7.02757061, 23.11438215, 206.86391335
3, 0.
*SHELL SECTION, ELSET=ELEM_487, COMPOSITE, ORIENTATION=ORI_487
1.20362222, 3, CFRP, 0.
** SOURCE_TET=2407
*ELSET, ELSET=ELEM_488
488
*ORIENTATION, NAME=ORI_488, SYSTEM=RECTANGULAR
-1.39466447, 25.27655146, 206.58719963, -1.39005034, 23.90718319, 206.94048315
3, 0.
*SHELL SECTION, ELSET=ELEM_488, COMPOSITE, ORIENTATION=ORI_488
1.20362222, 3, CFRP, 0.
** SOURCE_TET=1911
*ELSET, ELSET=ELEM_489
489
*ORIENTATION, NAME=ORI_489, SYSTEM=RECTANGULAR
-19.40139784, 21.93022738, 205.38764203, -18.55191662, 20.87755305, 205.80026582
3, 0.
*SHELL SECTION, ELSET=ELEM_489, COMPOSITE, ORIENTATION=ORI_489
1.20362222, 3, CFRP, 0.
** SOURCE_TET=2099
*ELSET, ELSET=ELEM_490
490
*ORIENTATION, NAME=ORI_490, SYSTEM=RECTANGULAR
-25.42931117, 20.42199335, 204.29031008, -24.45709256, 19.49988000, 204.74252456
3, 0.
*SHELL SECTION, ELSET=ELEM_490, COMPOSITE, ORIENTATION=ORI_490
1.20362222, 3, CFRP, 0.
** SOURCE_TET=1220
*ELSET, ELSET=ELEM_491
491
*ORIENTATION, NAME=ORI_491, SYSTEM=RECTANGULAR
-26.80573074, 14.02219569, 205.12032993, -25.69873318, 13.25015236, 205.54282905
3, 0.
*SHELL SECTION, ELSET=ELEM_491, COMPOSITE, ORIENTATION=ORI_491
1.20362222, 3, CFRP, 0.
** SOURCE_TET=1655
*ELSET, ELSET=ELEM_492
492
*ORIENTATION, NAME=ORI_492, SYSTEM=RECTANGULAR
-85.56696801, -28.64085700, 150.28075843, -84.99947608, -28.54787390, 151.57277509
3, 0.
*SHELL SECTION, ELSET=ELEM_492, COMPOSITE, ORIENTATION=ORI_492
1.20161998, 3, CFRP, 0.
** SOURCE_TET=819
*ELSET, ELSET=ELEM_493
493
*ORIENTATION, NAME=ORI_493, SYSTEM=RECTANGULAR
-86.93261254, -16.14672052, 154.17164759, -86.31225346, -16.10703195, 155.44191505
3, 0.
*SHELL SECTION, ELSET=ELEM_493, COMPOSITE, ORIENTATION=ORI_493
1.20170367, 3, CFRP, 0.
** SOURCE_TET=444
*ELSET, ELSET=ELEM_494
494
*ORIENTATION, NAME=ORI_494, SYSTEM=RECTANGULAR
-88.14084217, -34.49241621, 138.73850627, -87.71686839, -34.40875926, 140.08507515
3, 0.
*SHELL SECTION, ELSET=ELEM_494, COMPOSITE, ORIENTATION=ORI_494
1.20121956, 3, CFRP, 0.
** SOURCE_TET=233
*ELSET, ELSET=ELEM_495
495
*ORIENTATION, NAME=ORI_495, SYSTEM=RECTANGULAR
-92.02809175, -3.85019899, 145.23366824, -91.51743684, -3.91397973, 146.55092432
3, 0.
*SHELL SECTION, ELSET=ELEM_495, COMPOSITE, ORIENTATION=ORI_495
1.20138133, 3, CFRP, 0.
** SOURCE_TET=1270
*ELSET, ELSET=ELEM_496
496
*ORIENTATION, NAME=ORI_496, SYSTEM=RECTANGULAR
-11.82801385, -87.25694337, 154.67598901, -11.64801414, -86.65007152, 155.94062598
3, 0.
*SHELL SECTION, ELSET=ELEM_496, COMPOSITE, ORIENTATION=ORI_496
1.20168281, 3, CFRP, 0.
** SOURCE_TET=37
*ELSET, ELSET=ELEM_497
497
*ORIENTATION, NAME=ORI_497, SYSTEM=RECTANGULAR
3.42732669, -86.80921405, 156.34268014, 3.47560120, -86.15851879, 157.59737741
3, 0.
*SHELL SECTION, ELSET=ELEM_497, COMPOSITE, ORIENTATION=ORI_497
1.20173848, 3, CFRP, 0.
** SOURCE_TET=715
*ELSET, ELSET=ELEM_498
498
*ORIENTATION, NAME=ORI_498, SYSTEM=RECTANGULAR
-22.48594289, -89.61281470, 143.84155458, -22.32115193, -89.19906940, 145.18381341
3, 0.
*SHELL SECTION, ELSET=ELEM_498, COMPOSITE, ORIENTATION=ORI_498
1.20131993, 3, CFRP, 0.
** SOURCE_TET=519
*ELSET, ELSET=ELEM_499
499
*ORIENTATION, NAME=ORI_499, SYSTEM=RECTANGULAR
14.56930640, -90.62809102, 145.31188852, 14.57335185, -90.09777502, 146.62289903
3, 0.
*SHELL SECTION, ELSET=ELEM_499, COMPOSITE, ORIENTATION=ORI_499
1.20149958, 3, CFRP, 0.
** SOURCE_TET=1460
*ELSET, ELSET=ELEM_500
500
*ORIENTATION, NAME=ORI_500, SYSTEM=RECTANGULAR
4.61112243, 89.41014818, 152.30436491, 4.49530991, 88.81073801, 153.58001961
3, 0.
*SHELL SECTION, ELSET=ELEM_500, COMPOSITE, ORIENTATION=ORI_500
1.20165038, 3, CFRP, 0.
** SOURCE_TET=1782
*ELSET, ELSET=ELEM_501
501
*ORIENTATION, NAME=ORI_501, SYSTEM=RECTANGULAR
-6.47492271, 89.36945245, 152.34270456, -6.53224014, 88.76662380, 153.62071564
3, 0.
*SHELL SECTION, ELSET=ELEM_501, COMPOSITE, ORIENTATION=ORI_501
1.20165288, 3, CFRP, 0.
** SOURCE_TET=199
*ELSET, ELSET=ELEM_502
502
*ORIENTATION, NAME=ORI_502, SYSTEM=RECTANGULAR
-17.20097925, 91.23321286, 143.56738327, -17.21028283, 90.81706391, 144.91895032
3, 0.
*SHELL SECTION, ELSET=ELEM_502, COMPOSITE, ORIENTATION=ORI_502
1.20132041, 3, CFRP, 0.
** SOURCE_TET=1683
*ELSET, ELSET=ELEM_503
503
*ORIENTATION, NAME=ORI_503, SYSTEM=RECTANGULAR
14.74648165, 92.18647117, 142.55527046, 14.59053474, 91.77409563, 143.89900666
3, 0.
*SHELL SECTION, ELSET=ELEM_503, COMPOSITE, ORIENTATION=ORI_503
1.20131171, 3, CFRP, 0.
** SOURCE_TET=477
*ELSET, ELSET=ELEM_504
504
*ORIENTATION, NAME=ORI_504, SYSTEM=RECTANGULAR
69.70577930, -59.84464756, 145.02100747, 69.34461970, -59.44222431, 146.32776654
3, 0.
*SHELL SECTION, ELSET=ELEM_504, COMPOSITE, ORIENTATION=ORI_504
1.20133519, 3, CFRP, 0.
** SOURCE_TET=600
*ELSET, ELSET=ELEM_505
505
*ORIENTATION, NAME=ORI_505, SYSTEM=RECTANGULAR
56.98238688, -71.27893370, 147.69538101, 56.68796750, -70.78107822, 148.98590693
3, 0.
*SHELL SECTION, ELSET=ELEM_505, COMPOSITE, ORIENTATION=ORI_505
1.20145190, 3, CFRP, 0.
** SOURCE_TET=31
*ELSET, ELSET=ELEM_506
506
*ORIENTATION, NAME=ORI_506, SYSTEM=RECTANGULAR
72.27360107, 57.33673457, 143.45951264, 71.85705498, 57.10484294, 144.79094631
3, 0.
*SHELL SECTION, ELSET=ELEM_506, COMPOSITE, ORIENTATION=ORI_506
1.20131111, 3, CFRP, 0.
** SOURCE_TET=1144
*ELSET, ELSET=ELEM_507
507
*ORIENTATION, NAME=ORI_507, SYSTEM=RECTANGULAR
61.88546777, 63.68548327, 153.03296150, 61.42269605, 63.32898376, 154.32088636
3, 0.
*SHELL SECTION, ELSET=ELEM_507, COMPOSITE, ORIENTATION=ORI_507
1.20170498, 3, CFRP, 0.
** SOURCE_TET=236
*ELSET, ELSET=ELEM_508
508
*ORIENTATION, NAME=ORI_508, SYSTEM=RECTANGULAR
41.49015166, 82.47349085, 143.61711983, 41.20451498, 82.11458578, 144.95487872
3, 0.
*SHELL SECTION, ELSET=ELEM_508, COMPOSITE, ORIENTATION=ORI_508
1.20133066, 3, CFRP, 0.
** SOURCE_TET=1302
*ELSET, ELSET=ELEM_509
509
*ORIENTATION, NAME=ORI_509, SYSTEM=RECTANGULAR
49.74807137, 73.91288602, 152.53985219, 49.35821274, 73.48400989, 153.82984269
3, 0.
*SHELL SECTION, ELSET=ELEM_509, COMPOSITE, ORIENTATION=ORI_509
1.20152020, 3, CFRP, 0.
** SOURCE_TET=2302
*ELSET, ELSET=ELEM_510
510
*ORIENTATION, NAME=ORI_510, SYSTEM=RECTANGULAR
78.29118290, -27.94497250, 164.11158682, 77.59305679, -27.61795294, 165.29719980
3, 0.
*SHELL SECTION, ELSET=ELEM_510, COMPOSITE, ORIENTATION=ORI_510
1.20197511, 3, CFRP, 0.
** SOURCE_TET=201
*ELSET, ELSET=ELEM_511
511
*ORIENTATION, NAME=ORI_511, SYSTEM=RECTANGULAR
81.49488014, -36.45731996, 152.16862901, 80.98952214, -36.14357639, 153.45166379
3, 0.
*SHELL SECTION, ELSET=ELEM_511, COMPOSITE, ORIENTATION=ORI_511
1.20157766, 3, CFRP, 0.
** SOURCE_TET=1030
*ELSET, ELSET=ELEM_512
512
*ORIENTATION, NAME=ORI_512, SYSTEM=RECTANGULAR
88.76718762, -30.41623105, 140.34199509, 88.38613285, -30.19328849, 141.68553291
3, 0.
*SHELL SECTION, ELSET=ELEM_512, COMPOSITE, ORIENTATION=ORI_512
1.20132756, 3, CFRP, 0.
** SOURCE_TET=845
*ELSET, ELSET=ELEM_513
513
*ORIENTATION, NAME=ORI_513, SYSTEM=RECTANGULAR
75.86760064, 36.07912564, 161.65210581, 75.15453658, 35.84890139, 162.85149584
3, 0.
*SHELL SECTION, ELSET=ELEM_513, COMPOSITE, ORIENTATION=ORI_513
1.20194209, 3, CFRP, 0.
** SOURCE_TET=181
*ELSET, ELSET=ELEM_514
514
*ORIENTATION, NAME=ORI_514, SYSTEM=RECTANGULAR
81.24687519, 41.65960409, 147.31461714, 80.72080258, 41.48152378, 148.61520739
3, 0.
*SHELL SECTION, ELSET=ELEM_514, COMPOSITE, ORIENTATION=ORI_514
1.20147359, 3, CFRP, 0.
** SOURCE_TET=2091
*ELSET, ELSET=ELEM_515
515
*ORIENTATION, NAME=ORI_515, SYSTEM=RECTANGULAR
89.25072863, 32.54719306, 137.30603469, 88.85281422, 32.49502334, 138.66211081
3, 0.
*SHELL SECTION, ELSET=ELEM_515, COMPOSITE, ORIENTATION=ORI_515
1.20118129, 3, CFRP, 0.
** SOURCE_TET=1457
*ELSET, ELSET=ELEM_516
516
*ORIENTATION, NAME=ORI_516, SYSTEM=RECTANGULAR
20.96776813, -17.97791974, 205.78334153, 20.03738751, -16.98359289, 206.16505612
3, 0.
*SHELL SECTION, ELSET=ELEM_516, COMPOSITE, ORIENTATION=ORI_516
1.20362222, 3, CFRP, 0.
** SOURCE_TET=1611
*ELSET, ELSET=ELEM_517
517
*ORIENTATION, NAME=ORI_517, SYSTEM=RECTANGULAR
29.31932125, -17.04175135, 203.62955261, 28.20076654, -16.31231731, 204.09512897
3, 0.
*SHELL SECTION, ELSET=ELEM_517, COMPOSITE, ORIENTATION=ORI_517
1.20361292, 3, CFRP, 0.
** SOURCE_TET=1907
*ELSET, ELSET=ELEM_518
518
*ORIENTATION, NAME=ORI_518, SYSTEM=RECTANGULAR
18.17886583, -25.19855980, 204.72893775, 17.49626342, -24.04021354, 205.16744418
3, 0.
*SHELL SECTION, ELSET=ELEM_518, COMPOSITE, ORIENTATION=ORI_518
1.20362222, 3, CFRP, 0.
** SOURCE_TET=1523
*ELSET, ELSET=ELEM_519
519
*ORIENTATION, NAME=ORI_519, SYSTEM=RECTANGULAR
22.52977973, -31.02174827, 201.96093844, 21.85765608, -29.89828346, 202.49579975
3, 0.
*SHELL SECTION, ELSET=ELEM_519, COMPOSITE, ORIENTATION=ORI_519
1.20351648, 3, CFRP, 0.
** SOURCE_TET=2691
*ELSET, ELSET=ELEM_520
520
*ORIENTATION, NAME=ORI_520, SYSTEM=RECTANGULAR
30.40123961, -30.35245824, 199.91995223, 29.60499011, -29.34509396, 200.51257684
3, 0.
*SHELL SECTION, ELSET=ELEM_520, COMPOSITE, ORIENTATION=ORI_520
1.20342112, 3, CFRP, 0.
** SOURCE_TET=2490
*ELSET, ELSET=ELEM_521
521
*ORIENTATION, NAME=ORI_521, SYSTEM=RECTANGULAR
34.43197403, -23.62194293, 200.55574071, 33.43924864, -22.79621385, 201.13251432
3, 0.
*SHELL SECTION, ELSET=ELEM_521, COMPOSITE, ORIENTATION=ORI_521
1.20337451, 3, CFRP, 0.
** SOURCE_TET=1741
*ELSET, ELSET=ELEM_522
522
*ORIENTATION, NAME=ORI_522, SYSTEM=RECTANGULAR
25.03715288, 31.88324357, 200.95718473, 24.17723144, 30.92551441, 201.54309427
3, 0.
*SHELL SECTION, ELSET=ELEM_522, COMPOSITE, ORIENTATION=ORI_522
1.20343626, 3, CFRP, 0.
** SOURCE_TET=2145
*ELSET, ELSET=ELEM_523
523
*ORIENTATION, NAME=ORI_523, SYSTEM=RECTANGULAR
21.27183314, 24.62641115, 204.20624529, 20.29266453, 23.69289389, 204.61828214
3, 0.
*SHELL SECTION, ELSET=ELEM_523, COMPOSITE, ORIENTATION=ORI_523
1.20362222, 3, CFRP, 0.
** SOURCE_TET=2485
*ELSET, ELSET=ELEM_524
524
*ORIENTATION, NAME=ORI_524, SYSTEM=RECTANGULAR
32.20732878, 29.03463933, 199.75953777, 31.19566194, 28.25957820, 200.37257158
3, 0.
*SHELL SECTION, ELSET=ELEM_524, COMPOSITE, ORIENTATION=ORI_524
1.20328784, 3, CFRP, 0.
** SOURCE_TET=1099
*ELSET, ELSET=ELEM_525
525
*ORIENTATION, NAME=ORI_525, SYSTEM=RECTANGULAR
28.48772546, 21.75907804, 203.03544966, 27.35069443, 21.07516311, 203.52475612
3, 0.
*SHELL SECTION, ELSET=ELEM_525, COMPOSITE, ORIENTATION=ORI_525
1.20355499, 3, CFRP, 0.
** SOURCE_TET=2500
*ELSET, ELSET=ELEM_526
526
*ORIENTATION, NAME=ORI_526, SYSTEM=RECTANGULAR
16.90141435, 14.14647581, 207.39444798, 15.78239499, 13.33269716, 207.68695436
3, 0.
*SHELL SECTION, ELSET=ELEM_526, COMPOSITE, ORIENTATION=ORI_526
1.20362222, 3, CFRP, 0.
** SOURCE_TET=1356
*ELSET, ELSET=ELEM_527
527
*ORIENTATION, NAME=ORI_527, SYSTEM=RECTANGULAR
10.34472358, 25.09513050, 205.92228027, 9.76412540, 23.86587303, 206.31193630
3, 0.
*SHELL SECTION, ELSET=ELEM_527, COMPOSITE, ORIENTATION=ORI_527
1.20362222, 3, CFRP, 0.
** SOURCE_TET=2188
*ELSET, ELSET=ELEM_528
528
*ORIENTATION, NAME=ORI_528, SYSTEM=RECTANGULAR
16.03872855, 21.89140721, 205.82467983, 15.11072176, 20.90234007, 206.22536623
3, 0.
*SHELL SECTION, ELSET=ELEM_528, COMPOSITE, ORIENTATION=ORI_528
1.20362222, 3, CFRP, 0.
** SOURCE_TET=1973
*ELSET, ELSET=ELEM_529
529
*ORIENTATION, NAME=ORI_529, SYSTEM=RECTANGULAR
11.05504169, -26.52298806, 205.58239970, 10.67735284, -25.21936145, 205.97977708
3, 0.
*SHELL SECTION, ELSET=ELEM_529, COMPOSITE, ORIENTATION=ORI_529
1.20362222, 3, CFRP, 0.
** SOURCE_TET=2234
*ELSET, ELSET=ELEM_530
530
*ORIENTATION, NAME=ORI_530, SYSTEM=RECTANGULAR
17.91755740, -38.52591375, 200.10547463, 17.44710238, -37.33325029, 200.70232130
3, 0.
*SHELL SECTION, ELSET=ELEM_530, COMPOSITE, ORIENTATION=ORI_530
1.20333016, 3, CFRP, 0.
** SOURCE_TET=1617
*ELSET, ELSET=ELEM_531
531
*ORIENTATION, NAME=ORI_531, SYSTEM=RECTANGULAR
9.38655483, -39.13358479, 201.15282342, 9.22678349, -37.84196871, 201.70617775
3, 0.
*SHELL SECTION, ELSET=ELEM_531, COMPOSITE, ORIENTATION=ORI_531
1.20344687, 3, CFRP, 0.
** SOURCE_TET=1707
*ELSET, ELSET=ELEM_532
532
*ORIENTATION, NAME=ORI_532, SYSTEM=RECTANGULAR
6.89464999, -32.89934188, 203.86215766, 6.76906357, -31.57697730, 204.34752346
3, 0.
*SHELL SECTION, ELSET=ELEM_532, COMPOSITE, ORIENTATION=ORI_532
1.20358670, 3, CFRP, 0.
** SOURCE_TET=2295
*ELSET, ELSET=ELEM_533
533
*ORIENTATION, NAME=ORI_533, SYSTEM=RECTANGULAR
21.85865521, -45.43796150, 195.85856558, 21.40117804, -44.30365865, 196.56854565
3, 0.
*SHELL SECTION, ELSET=ELEM_533, COMPOSITE, ORIENTATION=ORI_533
1.20315325, 3, CFRP, 0.
** SOURCE_TET=1179
*ELSET, ELSET=ELEM_534
534
*ORIENTATION, NAME=ORI_534, SYSTEM=RECTANGULAR
31.96522136, -44.33525449, 193.05167339, 31.37622872, -43.30744005, 193.82412737
3, 0.
*SHELL SECTION, ELSET=ELEM_534, COMPOSITE, ORIENTATION=ORI_534
1.20305550, 3, CFRP, 0.
** SOURCE_TET=2663
*ELSET, ELSET=ELEM_535
535
*ORIENTATION, NAME=ORI_535, SYSTEM=RECTANGULAR
35.90000554, -36.76118627, 195.25664971, 35.18263235, -35.78962770, 195.99248233
3, 0.
*SHELL SECTION, ELSET=ELEM_535, COMPOSITE, ORIENTATION=ORI_535
1.20313954, 3, CFRP, 0.
** SOURCE_TET=1231
*ELSET, ELSET=ELEM_536
536
*ORIENTATION, NAME=ORI_536, SYSTEM=RECTANGULAR
16.40575192, -52.95597236, 192.63792217, 16.19569966, -51.79520552, 193.41798524
3, 0.
*SHELL SECTION, ELSET=ELEM_536, COMPOSITE, ORIENTATION=ORI_536
1.20298588, 3, CFRP, 0.
** SOURCE_TET=1050
*ELSET, ELSET=ELEM_537
537
*ORIENTATION, NAME=ORI_537, SYSTEM=RECTANGULAR
6.15792103, -53.10039835, 193.89312445, 6.11178283, -51.89847156, 194.63692769
3, 0.
*SHELL SECTION, ELSET=ELEM_537, COMPOSITE, ORIENTATION=ORI_537
1.20302737, 3, CFRP, 0.
** SOURCE_TET=1200
*ELSET, ELSET=ELEM_538
538
*ORIENTATION, NAME=ORI_538, SYSTEM=RECTANGULAR
3.08568438, -46.16192392, 198.14083207, 3.08191807, -44.91707423, 198.81190217
3, 0.
*SHELL SECTION, ELSET=ELEM_538, COMPOSITE, ORIENTATION=ORI_538
1.20319164, 3, CFRP, 0.
** SOURCE_TET=1780
*ELSET, ELSET=ELEM_539
539
*ORIENTATION, NAME=ORI_539, SYSTEM=RECTANGULAR
20.59428969, -60.38572206, 186.19392556, 20.30344642, -59.34090249, 187.10153906
3, 0.
*SHELL SECTION, ELSET=ELEM_539, COMPOSITE, ORIENTATION=ORI_539
1.20270824, 3, CFRP, 0.
** SOURCE_TET=1445
*ELSET, ELSET=ELEM_540
540
*ORIENTATION, NAME=ORI_540, SYSTEM=RECTANGULAR
31.61222180, -59.43431114, 182.97119820, 31.21113316, -58.46539312, 183.92005318
3, 0.
*SHELL SECTION, ELSET=ELEM_540, COMPOSITE, ORIENTATION=ORI_540
1.20261443, 3, CFRP, 0.
** SOURCE_TET=2095
*ELSET, ELSET=ELEM_541
541
*ORIENTATION, NAME=ORI_541, SYSTEM=RECTANGULAR
37.59222550, -50.80738249, 186.66937400, 36.97732377, -49.89978214, 187.56277058
3, 0.
*SHELL SECTION, ELSET=ELEM_541, COMPOSITE, ORIENTATION=ORI_541
1.20273674, 3, CFRP, 0.
** SOURCE_TET=1802
*ELSET, ELSET=ELEM_542
542
*ORIENTATION, NAME=ORI_542, SYSTEM=RECTANGULAR
-0.38491650, -60.07413925, 189.26730138, -0.31816225, -58.94605077, 190.11757208
3, 0.
*SHELL SECTION, ELSET=ELEM_542, COMPOSITE, ORIENTATION=ORI_542
1.20286942, 3, CFRP, 0.
** SOURCE_TET=1822
*ELSET, ELSET=ELEM_543
543
*ORIENTATION, NAME=ORI_543, SYSTEM=RECTANGULAR
4.04053542, -67.22466563, 183.12121041, 4.04630656, -66.17727983, 184.07144705
3, 0.
*SHELL SECTION, ELSET=ELEM_543, COMPOSITE, ORIENTATION=ORI_543
1.20254123, 3, CFRP, 0.
** SOURCE_TET=1885
*ELSET, ELSET=ELEM_544
544
*ORIENTATION, NAME=ORI_544, SYSTEM=RECTANGULAR
14.73956519, -67.71841873, 181.27558068, 14.62626306, -66.69414175, 182.24409464
3, 0.
*SHELL SECTION, ELSET=ELEM_544, COMPOSITE, ORIENTATION=ORI_544
1.20248926, 3, CFRP, 0.
** SOURCE_TET=1560
*ELSET, ELSET=ELEM_545
545
*ORIENTATION, NAME=ORI_545, SYSTEM=RECTANGULAR
-11.22906883, -59.72838001, 188.72650570, -10.94132080, -58.63139090, 189.57138201
3, 0.
*SHELL SECTION, ELSET=ELEM_545, COMPOSITE, ORIENTATION=ORI_545
1.20277500, 3, CFRP, 0.
** SOURCE_TET=1225
*ELSET, ELSET=ELEM_546
546
*ORIENTATION, NAME=ORI_546, SYSTEM=RECTANGULAR
-14.70079448, -53.90925126, 192.38461380, -14.31319980, -52.82412746, 193.20453861
3, 0.
*SHELL SECTION, ELSET=ELEM_546, COMPOSITE, ORIENTATION=ORI_546
1.20300579, 3, CFRP, 0.
** SOURCE_TET=678
*ELSET, ELSET=ELEM_547
547
*ORIENTATION, NAME=ORI_547, SYSTEM=RECTANGULAR
-4.64872679, -44.96333819, 198.83268488, -4.46899715, -43.71611151, 199.47465283
3, 0.
*SHELL SECTION, ELSET=ELEM_547, COMPOSITE, ORIENTATION=ORI_547
1.20333827, 3, CFRP, 0.
** SOURCE_TET=2470
*ELSET, ELSET=ELEM_548
548
*ORIENTATION, NAME=ORI_548, SYSTEM=RECTANGULAR
-10.78471049, -48.24248917, 196.62750591, -10.41508231, -47.06623795, 197.32018771
3, 0.
*SHELL SECTION, ELSET=ELEM_548, COMPOSITE, ORIENTATION=ORI_548
1.20315766, 3, CFRP, 0.
** SOURCE_TET=2273
*ELSET, ELSET=ELEM_549
549
*ORIENTATION, NAME=ORI_549, SYSTEM=RECTANGULAR
-18.01238581, -65.66355075, 182.48503545, -17.68304888, -64.68892542, 183.45541818
3, 0.
*SHELL SECTION, ELSET=ELEM_549, COMPOSITE, ORIENTATION=ORI_549
1.20258677, 3, CFRP, 0.
** SOURCE_TET=965
*ELSET, ELSET=ELEM_550
550
*ORIENTATION, NAME=ORI_550, SYSTEM=RECTANGULAR
-12.73990781, -73.18074824, 175.71333862, -12.51311213, -72.27338662, 176.77412069
3, 0.
*SHELL SECTION, ELSET=ELEM_550, COMPOSITE, ORIENTATION=ORI_550
1.20228982, 3, CFRP, 0.
** SOURCE_TET=1475
*ELSET, ELSET=ELEM_551
551
*ORIENTATION, NAME=ORI_551, SYSTEM=RECTANGULAR
-1.52896232, -74.38978514, 175.79623966, -1.40705170, -73.45253053, 176.84823377
3, 0.
*SHELL SECTION, ELSET=ELEM_551, COMPOSITE, ORIENTATION=ORI_551
1.20229018, 3, CFRP, 0.
** SOURCE_TET=2658
*ELSET, ELSET=ELEM_552
552
*ORIENTATION, NAME=ORI_552, SYSTEM=RECTANGULAR
-29.09060251, -62.66703742, 181.50286249, -28.55030957, -61.80353081, 182.48390270
3, 0.
*SHELL SECTION, ELSET=ELEM_552, COMPOSITE, ORIENTATION=ORI_552
1.20249307, 3, CFRP, 0.
** SOURCE_TET=1355
*ELSET, ELSET=ELEM_553
553
*ORIENTATION, NAME=ORI_553, SYSTEM=RECTANGULAR
-32.85650555, -54.22792208, 186.59908955, -32.22955479, -53.31949044, 187.48321889
3, 0.
*SHELL SECTION, ELSET=ELEM_553, COMPOSITE, ORIENTATION=ORI_553
1.20273018, 3, CFRP, 0.
** SOURCE_TET=1250
*ELSET, ELSET=ELEM_554
554
*ORIENTATION, NAME=ORI_554, SYSTEM=RECTANGULAR
-25.31363489, -51.46129086, 191.27750962, -24.72247253, -50.46339124, 192.08665943
3, 0.
*SHELL SECTION, ELSET=ELEM_554, COMPOSITE, ORIENTATION=ORI_554
1.20288026, 3, CFRP, 0.
** SOURCE_TET=1831
*ELSET, ELSET=ELEM_555
555
*ORIENTATION, NAME=ORI_555, SYSTEM=RECTANGULAR
36.16734858, -65.88588474, 174.99032787, 35.75743724, -65.03838499, 176.04565571
3, 0.
*SHELL SECTION, ELSET=ELEM_555, COMPOSITE, ORIENTATION=ORI_555
1.20226884, 3, CFRP, 0.
** SOURCE_TET=1730
*ELSET, ELSET=ELEM_556
556
*ORIENTATION, NAME=ORI_556, SYSTEM=RECTANGULAR
28.38073560, -74.53999181, 168.96761201, 28.15540169, -73.73130766, 170.10570454
3, 0.
*SHELL SECTION, ELSET=ELEM_556, COMPOSITE, ORIENTATION=ORI_556
1.20206547, 3, CFRP, 0.
** SOURCE_TET=1792
*ELSET, ELSET=ELEM_557
557
*ORIENTATION, NAME=ORI_557, SYSTEM=RECTANGULAR
17.99020946, -75.36858076, 172.03711052, 17.88935401, -74.49390345, 173.14380279
3, 0.
*SHELL SECTION, ELSET=ELEM_557, COMPOSITE, ORIENTATION=ORI_557
1.20224667, 3, CFRP, 0.
** SOURCE_TET=554
*ELSET, ELSET=ELEM_558
558
*ORIENTATION, NAME=ORI_558, SYSTEM=RECTANGULAR
-38.12029222, -66.11392321, 173.02387181, -37.59596870, -65.40241258, 174.12788153
3, 0.
*SHELL SECTION, ELSET=ELEM_558, COMPOSITE, ORIENTATION=ORI_558
1.20227063, 3, CFRP, 0.
** SOURCE_TET=1668
*ELSET, ELSET=ELEM_559
559
*ORIENTATION, NAME=ORI_559, SYSTEM=RECTANGULAR
-19.01572800, -79.17842063, 166.49243625, -18.76929552, -78.39702945, 167.64512825
3, 0.
*SHELL SECTION, ELSET=ELEM_559, COMPOSITE, ORIENTATION=ORI_559
1.20206082, 3, CFRP, 0.
** SOURCE_TET=594
*ELSET, ELSET=ELEM_560
560
*ORIENTATION, NAME=ORI_560, SYSTEM=RECTANGULAR
-33.35641320, -75.13705810, 164.78945287, -32.97268805, -74.44842136, 165.96356294
3, 0.
*SHELL SECTION, ELSET=ELEM_560, COMPOSITE, ORIENTATION=ORI_560
1.20204067, 3, CFRP, 0.
** SOURCE_TET=1233
*ELSET, ELSET=ELEM_561
561
*ORIENTATION, NAME=ORI_561, SYSTEM=RECTANGULAR
-43.16173471, -48.87136650, 185.09784853, -42.38523693, -48.13552789, 186.02283110
3, 0.
*SHELL SECTION, ELSET=ELEM_561, COMPOSITE, ORIENTATION=ORI_561
1.20267773, 3, CFRP, 0.
** SOURCE_TET=1882
*ELSET, ELSET=ELEM_562
562
*ORIENTATION, NAME=ORI_562, SYSTEM=RECTANGULAR
-49.41049354, -52.43959706, 178.55196659, -48.66567597, -51.78420081, 179.55978729
3, 0.
*SHELL SECTION, ELSET=ELEM_562, COMPOSITE, ORIENTATION=ORI_562
1.20238948, 3, CFRP, 0.
** SOURCE_TET=1385
*ELSET, ELSET=ELEM_563
563
*ORIENTATION, NAME=ORI_563, SYSTEM=RECTANGULAR
-48.15604657, -61.24215134, 171.56212917, -47.55288251, -60.58866895, 172.66174449
3, 0.
*SHELL SECTION, ELSET=ELEM_563, COMPOSITE, ORIENTATION=ORI_563
1.20222771, 3, CFRP, 0.
** SOURCE_TET=2605
*ELSET, ELSET=ELEM_564
564
*ORIENTATION, NAME=ORI_564, SYSTEM=RECTANGULAR
-46.66100387, -39.16741928, 188.53899348, -45.72105251, -38.52149486, 189.37521898
3, 0.
*SHELL SECTION, ELSET=ELEM_564, COMPOSITE, ORIENTATION=ORI_564
1.20286465, 3, CFRP, 0.
** SOURCE_TET=382
*ELSET, ELSET=ELEM_565
565
*ORIENTATION, NAME=ORI_565, SYSTEM=RECTANGULAR
-40.62875633, -33.71228447, 194.13238993, -39.63838556, -33.03897064, 194.88459616
3, 0.
*SHELL SECTION, ELSET=ELEM_565, COMPOSITE, ORIENTATION=ORI_565
1.20305884, 3, CFRP, 0.
** SOURCE_TET=729
*ELSET, ELSET=ELEM_566
566
*ORIENTATION, NAME=ORI_566, SYSTEM=RECTANGULAR
-31.19850459, -36.74213610, 196.96732214, -30.34618113, -35.84959658, 197.65791458
3, 0.
*SHELL SECTION, ELSET=ELEM_566, COMPOSITE, ORIENTATION=ORI_566
1.20317590, 3, CFRP, 0.
** SOURCE_TET=1297
*ELSET, ELSET=ELEM_567
567
*ORIENTATION, NAME=ORI_567, SYSTEM=RECTANGULAR
-25.33668439, -44.24444243, 195.43526249, -24.63150930, -43.26332289, 196.17019958
3, 0.
*SHELL SECTION, ELSET=ELEM_567, COMPOSITE, ORIENTATION=ORI_567
1.20311499, 3, CFRP, 0.
** SOURCE_TET=1838
*ELSET, ELSET=ELEM_568
568
*ORIENTATION, NAME=ORI_568, SYSTEM=RECTANGULAR
-56.12301741, -33.31527631, 185.03700898, -55.16549345, -32.84223255, 185.96403512
3, 0.
*SHELL SECTION, ELSET=ELEM_568, COMPOSITE, ORIENTATION=ORI_568
1.20264721, 3, CFRP, 0.
** SOURCE_TET=1894
*ELSET, ELSET=ELEM_569
569
*ORIENTATION, NAME=ORI_569, SYSTEM=RECTANGULAR
-61.96430599, -38.20191148, 177.62473834, -61.09726787, -37.76625219, 178.65354633
3, 0.
*SHELL SECTION, ELSET=ELEM_569, COMPOSITE, ORIENTATION=ORI_569
1.20243931, 3, CFRP, 0.
** SOURCE_TET=1773
*ELSET, ELSET=ELEM_570
570
*ORIENTATION, NAME=ORI_570, SYSTEM=RECTANGULAR
-58.72162802, -47.62199371, 174.58779908, -57.96208931, -47.08620696, 175.65364780
3, 0.
*SHELL SECTION, ELSET=ELEM_570, COMPOSITE, ORIENTATION=ORI_570
1.20228517, 3, CFRP, 0.
** SOURCE_TET=752
*ELSET, ELSET=ELEM_571
571
*ORIENTATION, NAME=ORI_571, SYSTEM=RECTANGULAR
-58.28104780, -22.79452065, 187.25403111, -57.21868059, -22.48182622, 188.13357536
3, 0.
*SHELL SECTION, ELSET=ELEM_571, COMPOSITE, ORIENTATION=ORI_571
1.20276868, 3, CFRP, 0.
** SOURCE_TET=487
*ELSET, ELSET=ELEM_572
572
*ORIENTATION, NAME=ORI_572, SYSTEM=RECTANGULAR
-51.14770803, -17.26839316, 193.43816023, -49.99006201, -16.96786509, 194.19283803
3, 0.
*SHELL SECTION, ELSET=ELEM_572, COMPOSITE, ORIENTATION=ORI_572
1.20307159, 3, CFRP, 0.
** SOURCE_TET=759
*ELSET, ELSET=ELEM_573
573
*ORIENTATION, NAME=ORI_573, SYSTEM=RECTANGULAR
-43.01092025, -22.33220586, 196.82931884, -41.86009297, -21.88162252, 197.51675700
3, 0.
*SHELL SECTION, ELSET=ELEM_573, COMPOSITE, ORIENTATION=ORI_573
1.20320141, 3, CFRP, 0.
** SOURCE_TET=1742
*ELSET, ELSET=ELEM_574
574
*ORIENTATION, NAME=ORI_574, SYSTEM=RECTANGULAR
-66.08987336, -16.87167715, 182.27236947, -65.06146099, -16.73363850, 183.23326141
3, 0.
*SHELL SECTION, ELSET=ELEM_574, COMPOSITE, ORIENTATION=ORI_574
1.20255733, 3, CFRP, 0.
** SOURCE_TET=1192
*ELSET, ELSET=ELEM_575
575
*ORIENTATION, NAME=ORI_575, SYSTEM=RECTANGULAR
-71.13389934, -32.31894315, 171.14921270, -70.30127446, -32.04444457, 172.25889119
3, 0.
*SHELL SECTION, ELSET=ELEM_575, COMPOSITE, ORIENTATION=ORI_575
1.20221019, 3, CFRP, 0.
** SOURCE_TET=792
*ELSET, ELSET=ELEM_576
576
*ORIENTATION, NAME=ORI_576, SYSTEM=RECTANGULAR
-73.07165999, -21.53153008, 173.59136618, -72.18427166, -21.33935522, 174.67562204
3, 0.
*SHELL SECTION, ELSET=ELEM_576, COMPOSITE, ORIENTATION=ORI_576
1.20227158, 3, CFRP, 0.
** SOURCE_TET=898
*ELSET, ELSET=ELEM_577
577
*ORIENTATION, NAME=ORI_577, SYSTEM=RECTANGULAR
-51.71102268, -6.63124626, 194.71317553, -50.50171101, -6.59160647, 195.44529163
3, 0.
*SHELL SECTION, ELSET=ELEM_577, COMPOSITE, ORIENTATION=ORI_577
1.20306563, 3, CFRP, 0.
** SOURCE_TET=1091
*ELSET, ELSET=ELEM_578
578
*ORIENTATION, NAME=ORI_578, SYSTEM=RECTANGULAR
-59.19607347, -1.53479615, 189.95645111, -58.05325052, -1.58836364, 190.78776709
3, 0.
*SHELL SECTION, ELSET=ELEM_578, COMPOSITE, ORIENTATION=ORI_578
1.20289683, 3, CFRP, 0.
** SOURCE_TET=1399
*ELSET, ELSET=ELEM_579
579
*ORIENTATION, NAME=ORI_579, SYSTEM=RECTANGULAR
-66.44785349, -6.24277524, 183.69616809, -65.39593966, -6.22697165, 184.64127525
3, 0.
*SHELL SECTION, ELSET=ELEM_579, COMPOSITE, ORIENTATION=ORI_579
1.20259464, 3, CFRP, 0.
** SOURCE_TET=717
*ELSET, ELSET=ELEM_580
580
*ORIENTATION, NAME=ORI_580, SYSTEM=RECTANGULAR
47.88179577, -63.37022938, 169.28830553, 47.43610782, -62.64724367, 170.41908134
3, 0.
*SHELL SECTION, ELSET=ELEM_580, COMPOSITE, ORIENTATION=ORI_580
1.20212626, 3, CFRP, 0.
** SOURCE_TET=1573
*ELSET, ELSET=ELEM_581
581
*ORIENTATION, NAME=ORI_581, SYSTEM=RECTANGULAR
54.36985012, -52.67547045, 173.63133406, 53.80074334, -51.96393802, 174.71292505
3, 0.
*SHELL SECTION, ELSET=ELEM_581, COMPOSITE, ORIENTATION=ORI_581
1.20224202, 3, CFRP, 0.
** SOURCE_TET=2204
*ELSET, ELSET=ELEM_582
582
*ORIENTATION, NAME=ORI_582, SYSTEM=RECTANGULAR
48.60018284, -46.57089646, 182.98769849, 47.92365768, -45.80284394, 183.96361295
3, 0.
*SHELL SECTION, ELSET=ELEM_582, COMPOSITE, ORIENTATION=ORI_582
1.20262563, 3, CFRP, 0.
** SOURCE_TET=1116
*ELSET, ELSET=ELEM_583
583
*ORIENTATION, NAME=ORI_583, SYSTEM=RECTANGULAR
-44.42523514, -1.58711328, 199.07060642, -43.15797790, -1.65000075, 199.69518969
3, 0.
*SHELL SECTION, ELSET=ELEM_583, COMPOSITE, ORIENTATION=ORI_583
1.20333159, 3, CFRP, 0.
** SOURCE_TET=1349
*ELSET, ELSET=ELEM_584
584
*ORIENTATION, NAME=ORI_584, SYSTEM=RECTANGULAR
-35.67518773, -18.70744650, 201.08608514, -34.47809621, -18.21962493, 201.65967212
3, 0.
*SHELL SECTION, ELSET=ELEM_584, COMPOSITE, ORIENTATION=ORI_584
1.20347250, 3, CFRP, 0.
** SOURCE_TET=1941
*ELSET, ELSET=ELEM_585
585
*ORIENTATION, NAME=ORI_585, SYSTEM=RECTANGULAR
-38.08135325, -5.47424944, 201.96468639, -36.78153198, -5.43593235, 202.52056089
3, 0.
*SHELL SECTION, ELSET=ELEM_585, COMPOSITE, ORIENTATION=ORI_585
1.20346439, 3, CFRP, 0.
** SOURCE_TET=1271
*ELSET, ELSET=ELEM_586
586
*ORIENTATION, NAME=ORI_586, SYSTEM=RECTANGULAR
-34.97020742, -12.56177832, 202.48799143, -33.71688644, -12.20677111, 203.03858783
3, 0.
*SHELL SECTION, ELSET=ELEM_586, COMPOSITE, ORIENTATION=ORI_586
1.20353854, 3, CFRP, 0.
** SOURCE_TET=1101
*ELSET, ELSET=ELEM_587
587
*ORIENTATION, NAME=ORI_587, SYSTEM=RECTANGULAR
-58.73177837, 8.95069799, 189.77977913, -57.62086681, 8.68340338, 190.61310326
3, 0.
*SHELL SECTION, ELSET=ELEM_587, COMPOSITE, ORIENTATION=ORI_587
1.20280564, 3, CFRP, 0.
** SOURCE_TET=1255
*ELSET, ELSET=ELEM_588
588
*ORIENTATION, NAME=ORI_588, SYSTEM=RECTANGULAR
-51.64670813, 13.97190213, 193.89284214, -50.52258560, 13.55908806, 194.64512738
3, 0.
*SHELL SECTION, ELSET=ELEM_588, COMPOSITE, ORIENTATION=ORI_588
1.20306754, 3, CFRP, 0.
** SOURCE_TET=1011
*ELSET, ELSET=ELEM_589
589
*ORIENTATION, NAME=ORI_589, SYSTEM=RECTANGULAR
-44.85597210, 8.56998864, 198.42547310, -43.64827389, 8.20264668, 199.06306616
3, 0.
*SHELL SECTION, ELSET=ELEM_589, COMPOSITE, ORIENTATION=ORI_589
1.20324731, 3, CFRP, 0.
** SOURCE_TET=411
*ELSET, ELSET=ELEM_590
590
*ORIENTATION, NAME=ORI_590, SYSTEM=RECTANGULAR
-65.65519577, 14.72792798, 183.11517902, -64.65852207, 14.42606547, 184.07200742
3, 0.
*SHELL SECTION, ELSET=ELEM_590, COMPOSITE, ORIENTATION=ORI_590
1.20260239, 3, CFRP, 0.
** SOURCE_TET=1230
*ELSET, ELSET=ELEM_591
591
*ORIENTATION, NAME=ORI_591, SYSTEM=RECTANGULAR
-72.25817296, 9.80478156, 177.66016798, -71.30010584, 9.57949405, 178.67572346
3, 0.
*SHELL SECTION, ELSET=ELEM_591, COMPOSITE, ORIENTATION=ORI_591
1.20244837, 3, CFRP, 0.
** SOURCE_TET=2246
*ELSET, ELSET=ELEM_592
592
*ORIENTATION, NAME=ORI_592, SYSTEM=RECTANGULAR
-72.55736170, -0.71921635, 178.07148830, -71.57537187, -0.77257820, 179.08777984
3, 0.
*SHELL SECTION, ELSET=ELEM_592, COMPOSITE, ORIENTATION=ORI_592
1.20243609, 3, CFRP, 0.
** SOURCE_TET=877
*ELSET, ELSET=ELEM_593
593
*ORIENTATION, NAME=ORI_593, SYSTEM=RECTANGULAR
-64.06295123, 25.69522385, 181.43116462, -63.15341380, 25.22618195, 182.40724933
3, 0.
*SHELL SECTION, ELSET=ELEM_593, COMPOSITE, ORIENTATION=ORI_593
1.20258009, 3, CFRP, 0.
** SOURCE_TET=949
*ELSET, ELSET=ELEM_594
594
*ORIENTATION, NAME=ORI_594, SYSTEM=RECTANGULAR
-55.55913557, 30.71351981, 186.50811323, -54.63433471, 30.12394359, 187.40094202
3, 0.
*SHELL SECTION, ELSET=ELEM_594, COMPOSITE, ORIENTATION=ORI_594
1.20272791, 3, CFRP, 0.
** SOURCE_TET=1532
*ELSET, ELSET=ELEM_595
595
*ORIENTATION, NAME=ORI_595, SYSTEM=RECTANGULAR
-50.07615783, 24.78839251, 192.30820685, -49.06592790, 24.19765356, 193.10222384
3, 0.
*SHELL SECTION, ELSET=ELEM_595, COMPOSITE, ORIENTATION=ORI_595
1.20291579, 3, CFRP, 0.
** SOURCE_TET=613
*ELSET, ELSET=ELEM_596
596
*ORIENTATION, NAME=ORI_596, SYSTEM=RECTANGULAR
-69.84689293, 31.43305364, 173.20899231, -69.04891633, 30.99531279, 174.29140457
3, 0.
*SHELL SECTION, ELSET=ELEM_596, COMPOSITE, ORIENTATION=ORI_596
1.20223713, 3, CFRP, 0.
** SOURCE_TET=1580
*ELSET, ELSET=ELEM_597
597
*ORIENTATION, NAME=ORI_597, SYSTEM=RECTANGULAR
-77.82965900, 25.15859969, 166.26639155, -77.09728140, 24.82534278, 167.42938892
3, 0.
*SHELL SECTION, ELSET=ELEM_597, COMPOSITE, ORIENTATION=ORI_597
1.20206654, 3, CFRP, 0.
** SOURCE_TET=2342
*ELSET, ELSET=ELEM_598
598
*ORIENTATION, NAME=ORI_598, SYSTEM=RECTANGULAR
-78.62749829, 14.45341668, 169.04849885, -77.81904234, 14.23917179, 170.18889268
3, 0.
*SHELL SECTION, ELSET=ELEM_598, COMPOSITE, ORIENTATION=ORI_598
1.20212245, 3, CFRP, 0.
** SOURCE_TET=1298
*ELSET, ELSET=ELEM_599
599
*ORIENTATION, NAME=ORI_599, SYSTEM=RECTANGULAR
-52.18373491, 41.30811095, 183.87170954, -51.42290739, 40.58085650, 184.81629540
3, 0.
*SHELL SECTION, ELSET=ELEM_599, COMPOSITE, ORIENTATION=ORI_599
1.20262849, 3, CFRP, 0.
** SOURCE_TET=1667
*ELSET, ELSET=ELEM_600
600
*ORIENTATION, NAME=ORI_600, SYSTEM=RECTANGULAR
-57.63009066, 46.44588318, 176.27965069, -56.93418248, 45.79756468, 177.32626185
3, 0.
*SHELL SECTION, ELSET=ELEM_600, COMPOSITE, ORIENTATION=ORI_600
1.20230770, 3, CFRP, 0.
** SOURCE_TET=1282
*ELSET, ELSET=ELEM_601
601
*ORIENTATION, NAME=ORI_601, SYSTEM=RECTANGULAR
-66.77799931, 41.63636919, 170.65744903, -66.08497197, 41.09422124, 171.76460246
3, 0.
*SHELL SECTION, ELSET=ELEM_601, COMPOSITE, ORIENTATION=ORI_601
1.20216382, 3, CFRP, 0.
** SOURCE_TET=1526
*ELSET, ELSET=ELEM_602
602
*ORIENTATION, NAME=ORI_602, SYSTEM=RECTANGULAR
-42.68643032, 45.31382819, 187.52325262, -41.96836253, 44.46186202, 188.39419022
3, 0.
*SHELL SECTION, ELSET=ELEM_602, COMPOSITE, ORIENTATION=ORI_602
1.20273983, 3, CFRP, 0.
** SOURCE_TET=1213
*ELSET, ELSET=ELEM_603
603
*ORIENTATION, NAME=ORI_603, SYSTEM=RECTANGULAR
-38.86082688, 39.19907888, 192.81796959, -38.12242875, 38.29261015, 193.61363450
3, 0.
*SHELL SECTION, ELSET=ELEM_603, COMPOSITE, ORIENTATION=ORI_603
1.20300031, 3, CFRP, 0.
** SOURCE_TET=1549
*ELSET, ELSET=ELEM_604
604
*ORIENTATION, NAME=ORI_604, SYSTEM=RECTANGULAR
-42.88262631, 29.22519138, 194.98226802, -41.93925458, 28.46569194, 195.71248058
3, 0.
*SHELL SECTION, ELSET=ELEM_604, COMPOSITE, ORIENTATION=ORI_604
1.20310545, 3, CFRP, 0.
** SOURCE_TET=1207
*ELSET, ELSET=ELEM_605
605
*ORIENTATION, NAME=ORI_605, SYSTEM=RECTANGULAR
-38.04885727, 55.15259937, 183.37097110, -37.52680613, 54.24178868, 184.31853983
3, 0.
*SHELL SECTION, ELSET=ELEM_605, COMPOSITE, ORIENTATION=ORI_605
1.20259666, 3, CFRP, 0.
** SOURCE_TET=215
*ELSET, ELSET=ELEM_606
606
*ORIENTATION, NAME=ORI_606, SYSTEM=RECTANGULAR
-44.71500998, 61.33660353, 173.61181595, -44.23767375, 60.57544684, 174.70396549
3, 0.
*SHELL SECTION, ELSET=ELEM_606, COMPOSITE, ORIENTATION=ORI_606
1.20224893, 3, CFRP, 0.
** SOURCE_TET=157
*ELSET, ELSET=ELEM_607
607
*ORIENTATION, NAME=ORI_607, SYSTEM=RECTANGULAR
-54.79344435, 56.70971299, 170.16033407, -54.25395417, 56.01979635, 171.27072381
3, 0.
*SHELL SECTION, ELSET=ELEM_607, COMPOSITE, ORIENTATION=ORI_607
1.20215905, 3, CFRP, 0.
** SOURCE_TET=874
*ELSET, ELSET=ELEM_608
608
*ORIENTATION, NAME=ORI_608, SYSTEM=RECTANGULAR
-27.33402581, 58.39938356, 185.50911814, -26.96580071, 57.37836455, 186.41572194
3, 0.
*SHELL SECTION, ELSET=ELEM_608, COMPOSITE, ORIENTATION=ORI_608
1.20274317, 3, CFRP, 0.
** SOURCE_TET=485
*ELSET, ELSET=ELEM_609
609
*ORIENTATION, NAME=ORI_609, SYSTEM=RECTANGULAR
-21.17620719, 52.45086438, 191.73418231, -20.82571728, 51.34428215, 192.54203910
3, 0.
*SHELL SECTION, ELSET=ELEM_609, COMPOSITE, ORIENTATION=ORI_609
1.20294094, 3, CFRP, 0.
** SOURCE_TET=1408
*ELSET, ELSET=ELEM_610
610
*ORIENTATION, NAME=ORI_610, SYSTEM=RECTANGULAR
-24.41506082, 44.92849213, 195.44475740, -23.95326098, 43.81494577, 196.18418653
3, 0.
*SHELL SECTION, ELSET=ELEM_610, COMPOSITE, ORIENTATION=ORI_610
1.20307207, 3, CFRP, 0.
** SOURCE_TET=1793
*ELSET, ELSET=ELEM_611
611
*ORIENTATION, NAME=ORI_611, SYSTEM=RECTANGULAR
-31.58764433, 40.11959242, 195.53312960, -30.90839976, 39.12057388, 196.26837702
3, 0.
*SHELL SECTION, ELSET=ELEM_611, COMPOSITE, ORIENTATION=ORI_611
1.20309627, 3, CFRP, 0.
** SOURCE_TET=435
*ELSET, ELSET=ELEM_612
612
*ORIENTATION, NAME=ORI_612, SYSTEM=RECTANGULAR
-22.17033568, 67.54248605, 179.30884926, -21.93988798, 66.57292825, 180.31226917
3, 0.
*SHELL SECTION, ELSET=ELEM_612, COMPOSITE, ORIENTATION=ORI_612
1.20243919, 3, CFRP, 0.
** SOURCE_TET=279
*ELSET, ELSET=ELEM_613
613
*ORIENTATION, NAME=ORI_613, SYSTEM=RECTANGULAR
-39.21317936, 70.67128585, 167.25690603, -38.88262217, 69.91158922, 168.40302687
3, 0.
*SHELL SECTION, ELSET=ELEM_613, COMPOSITE, ORIENTATION=ORI_613
1.20203376, 3, CFRP, 0.
** SOURCE_TET=1995
*ELSET, ELSET=ELEM_614
614
*ORIENTATION, NAME=ORI_614, SYSTEM=RECTANGULAR
-27.37393216, 73.62604752, 170.80465676, -27.15188306, 72.77204742, 171.90981649
3, 0.
*SHELL SECTION, ELSET=ELEM_614, COMPOSITE, ORIENTATION=ORI_614
1.20221651, 3, CFRP, 0.
** SOURCE_TET=1944
*ELSET, ELSET=ELEM_615
615
*ORIENTATION, NAME=ORI_615, SYSTEM=RECTANGULAR
-10.03274822, 54.41760785, 192.68193153, -9.92961490, 53.24331145, 193.46320708
3, 0.
*SHELL SECTION, ELSET=ELEM_615, COMPOSITE, ORIENTATION=ORI_615
1.20293903, 3, CFRP, 0.
** SOURCE_TET=1414
*ELSET, ELSET=ELEM_616
616
*ORIENTATION, NAME=ORI_616, SYSTEM=RECTANGULAR
-4.94029467, 61.71946279, 187.78897059, -4.93149000, 60.60567202, 188.66040194
3, 0.
*SHELL SECTION, ELSET=ELEM_616, COMPOSITE, ORIENTATION=ORI_616
1.20277679, 3, CFRP, 0.
** SOURCE_TET=781
*ELSET, ELSET=ELEM_617
617
*ORIENTATION, NAME=ORI_617, SYSTEM=RECTANGULAR
-10.89261010, 68.93049301, 180.62656524, -10.84010918, 67.92393838, 181.61857907
3, 0.
*SHELL SECTION, ELSET=ELEM_617, COMPOSITE, ORIENTATION=ORI_617
1.20244265, 3, CFRP, 0.
** SOURCE_TET=825
*ELSET, ELSET=ELEM_618
618
*ORIENTATION, NAME=ORI_618, SYSTEM=RECTANGULAR
-82.67145462, 30.26147016, 155.42071012, -82.08865941, 29.97563459, 156.67715263
3, 0.
*SHELL SECTION, ELSET=ELEM_618, COMPOSITE, ORIENTATION=ORI_618
1.20169258, 3, CFRP, 0.
** SOURCE_TET=501
*ELSET, ELSET=ELEM_619
619
*ORIENTATION, NAME=ORI_619, SYSTEM=RECTANGULAR
-78.66887188, 42.52343285, 152.54870173, -78.17435434, 42.15983072, 153.82276841
3, 0.
*SHELL SECTION, ELSET=ELEM_619, COMPOSITE, ORIENTATION=ORI_619
1.20162654, 3, CFRP, 0.
** SOURCE_TET=1718
*ELSET, ELSET=ELEM_620
620
*ORIENTATION, NAME=ORI_620, SYSTEM=RECTANGULAR
-70.76075476, 47.58985213, 160.86833301, -70.20444393, 47.13117186, 162.08493922
3, 0.
*SHELL SECTION, ELSET=ELEM_620, COMPOSITE, ORIENTATION=ORI_620
1.20180976, 3, CFRP, 0.
** SOURCE_TET=1181
*ELSET, ELSET=ELEM_621
621
*ORIENTATION, NAME=ORI_621, SYSTEM=RECTANGULAR
-4.31464373, 47.82245936, 197.17739118, -4.28801848, 46.57712593, 197.84704464
3, 0.
*SHELL SECTION, ELSET=ELEM_621, COMPOSITE, ORIENTATION=ORI_621
1.20320785, 3, CFRP, 0.
** SOURCE_TET=1614
*ELSET, ELSET=ELEM_622
622
*ORIENTATION, NAME=ORI_622, SYSTEM=RECTANGULAR
-9.44055070, 41.54717626, 200.01602234, -9.28502564, 40.27504227, 200.61392455
3, 0.
*SHELL SECTION, ELSET=ELEM_622, COMPOSITE, ORIENTATION=ORI_622
1.20332944, 3, CFRP, 0.
** SOURCE_TET=2366
*ELSET, ELSET=ELEM_623
623
*ORIENTATION, NAME=ORI_623, SYSTEM=RECTANGULAR
-18.42934040, 40.55065528, 199.23209344, -17.98822501, 39.36381671, 199.86203902
3, 0.
*SHELL SECTION, ELSET=ELEM_623, COMPOSITE, ORIENTATION=ORI_623
1.20332599, 3, CFRP, 0.
** SOURCE_TET=1705
*ELSET, ELSET=ELEM_624
624
*ORIENTATION, NAME=ORI_624, SYSTEM=RECTANGULAR
6.24791329, 61.91178701, 187.50435147, 6.01729228, 60.82488593, 188.37925717
3, 0.
*SHELL SECTION, ELSET=ELEM_624, COMPOSITE, ORIENTATION=ORI_624
1.20280015, 3, CFRP, 0.
** SOURCE_TET=1252
*ELSET, ELSET=ELEM_625
625
*ORIENTATION, NAME=ORI_625, SYSTEM=RECTANGULAR
12.23281516, 54.66432785, 192.14814449, 11.88570684, 53.54091878, 192.93393572
3, 0.
*SHELL SECTION, ELSET=ELEM_625, COMPOSITE, ORIENTATION=ORI_625
1.20295048, 3, CFRP, 0.
** SOURCE_TET=850
*ELSET, ELSET=ELEM_626
626
*ORIENTATION, NAME=ORI_626, SYSTEM=RECTANGULAR
6.82115236, 47.92617202, 196.91799766, 6.53063808, 46.72262213, 197.60142220
3, 0.
*SHELL SECTION, ELSET=ELEM_626, COMPOSITE, ORIENTATION=ORI_626
1.20324206, 3, CFRP, 0.
** SOURCE_TET=1634
*ELSET, ELSET=ELEM_627
627
*ORIENTATION, NAME=ORI_627, SYSTEM=RECTANGULAR
11.74818823, 69.11684429, 180.34449177, 11.48799284, 68.14462219, 181.33801205
3, 0.
*SHELL SECTION, ELSET=ELEM_627, COMPOSITE, ORIENTATION=ORI_627
1.20246196, 3, CFRP, 0.
** SOURCE_TET=846
*ELSET, ELSET=ELEM_628
628
*ORIENTATION, NAME=ORI_628, SYSTEM=RECTANGULAR
5.27731461, 76.61496292, 172.75485596, 5.16282871, 75.72138960, 173.84500261
3, 0.
*SHELL SECTION, ELSET=ELEM_628, COMPOSITE, ORIENTATION=ORI_628
1.20223558, 3, CFRP, 0.
** SOURCE_TET=323
*ELSET, ELSET=ELEM_629
629
*ORIENTATION, NAME=ORI_629, SYSTEM=RECTANGULAR
-6.19041433, 76.62659019, 172.77434126, -6.20154336, 75.71699815, 173.85717018
3, 0.
*SHELL SECTION, ELSET=ELEM_629, COMPOSITE, ORIENTATION=ORI_629
1.20223308, 3, CFRP, 0.
** SOURCE_TET=1541
*ELSET, ELSET=ELEM_630
630
*ORIENTATION, NAME=ORI_630, SYSTEM=RECTANGULAR
23.76286205, 68.01140382, 178.23569565, 23.38938143, 67.10628627, 179.25612421
3, 0.
*SHELL SECTION, ELSET=ELEM_630, COMPOSITE, ORIENTATION=ORI_630
1.20240688, 3, CFRP, 0.
** SOURCE_TET=1985
*ELSET, ELSET=ELEM_631
631
*ORIENTATION, NAME=ORI_631, SYSTEM=RECTANGULAR
30.30362202, 59.65377379, 183.33602461, 29.71632839, 58.77437545, 184.27503726
3, 0.
*SHELL SECTION, ELSET=ELEM_631, COMPOSITE, ORIENTATION=ORI_631
1.20262122, 3, CFRP, 0.
** SOURCE_TET=880
*ELSET, ELSET=ELEM_632
632
*ORIENTATION, NAME=ORI_632, SYSTEM=RECTANGULAR
24.26627704, 53.52483737, 190.11116815, 23.69541349, 52.53871836, 190.94883402
3, 0.
*SHELL SECTION, ELSET=ELEM_632, COMPOSITE, ORIENTATION=ORI_632
1.20292914, 3, CFRP, 0.
** SOURCE_TET=1565
*ELSET, ELSET=ELEM_633
633
*ORIENTATION, NAME=ORI_633, SYSTEM=RECTANGULAR
29.60269569, 74.34209935, 168.49574477, 29.20661821, 73.60105219, 169.63327355
3, 0.
*SHELL SECTION, ELSET=ELEM_633, COMPOSITE, ORIENTATION=ORI_633
1.20204985, 3, CFRP, 0.
** SOURCE_TET=1847
*ELSET, ELSET=ELEM_634
634
*ORIENTATION, NAME=ORI_634, SYSTEM=RECTANGULAR
22.86570678, 81.83398661, 161.18931961, 22.55921164, 81.14504399, 162.38573876
3, 0.
*SHELL SECTION, ELSET=ELEM_634, COMPOSITE, ORIENTATION=ORI_634
1.20187855, 3, CFRP, 0.
** SOURCE_TET=1350
*ELSET, ELSET=ELEM_635
635
*ORIENTATION, NAME=ORI_635, SYSTEM=RECTANGULAR
10.57336952, 83.00938929, 163.32391153, 10.40286338, 82.25331725, 164.50682435
3, 0.
*SHELL SECTION, ELSET=ELEM_635, COMPOSITE, ORIENTATION=ORI_635
1.20189643, 3, CFRP, 0.
** SOURCE_TET=1755
*ELSET, ELSET=ELEM_636
636
*ORIENTATION, NAME=ORI_636, SYSTEM=RECTANGULAR
-17.23176525, 28.71853302, 203.96690975, -16.63553313, 27.52214711, 204.42861097
3, 0.
*SHELL SECTION, ELSET=ELEM_636, COMPOSITE, ORIENTATION=ORI_636
1.20362222, 3, CFRP, 0.
** SOURCE_TET=2221
*ELSET, ELSET=ELEM_637
637
*ORIENTATION, NAME=ORI_637, SYSTEM=RECTANGULAR
-11.01368157, 29.47786533, 204.65331741, -10.59288897, 28.20250145, 205.09646586
3, 0.
*SHELL SECTION, ELSET=ELEM_637, COMPOSITE, ORIENTATION=ORI_637
1.20362222, 3, CFRP, 0.
** SOURCE_TET=2164
*ELSET, ELSET=ELEM_638
638
*ORIENTATION, NAME=ORI_638, SYSTEM=RECTANGULAR
-76.84325092, -37.00478201, 160.45622806, -76.16725181, -36.73696933, 161.66920026
3, 0.
*SHELL SECTION, ELSET=ELEM_638, COMPOSITE, ORIENTATION=ORI_638
1.20186794, 3, CFRP, 0.
** SOURCE_TET=1351
*ELSET, ELSET=ELEM_639
639
*ORIENTATION, NAME=ORI_639, SYSTEM=RECTANGULAR
-72.54040877, -48.22884349, 157.23130343, -71.93053644, -47.91330102, 158.46762405
3, 0.
*SHELL SECTION, ELSET=ELEM_639, COMPOSITE, ORIENTATION=ORI_639
1.20179236, 3, CFRP, 0.
** SOURCE_TET=2093
*ELSET, ELSET=ELEM_640
640
*ORIENTATION, NAME=ORI_640, SYSTEM=RECTANGULAR
-63.56128576, -52.95253452, 164.86361047, -62.90656893, -52.53107197, 166.04416763
3, 0.
*SHELL SECTION, ELSET=ELEM_640, COMPOSITE, ORIENTATION=ORI_640
1.20196664, 3, CFRP, 0.
** SOURCE_TET=2177
*ELSET, ELSET=ELEM_641
641
*ORIENTATION, NAME=ORI_641, SYSTEM=RECTANGULAR
42.60703759, 56.36339429, 179.70872898, 41.94739932, 55.62470790, 180.71829313
3, 0.
*SHELL SECTION, ELSET=ELEM_641, COMPOSITE, ORIENTATION=ORI_641
1.20251501, 3, CFRP, 0.
** SOURCE_TET=568
*ELSET, ELSET=ELEM_642
642
*ORIENTATION, NAME=ORI_642, SYSTEM=RECTANGULAR
48.24091646, 61.58092368, 170.99232830, 47.60613201, 60.95919783, 172.09255812
3, 0.
*SHELL SECTION, ELSET=ELEM_642, COMPOSITE, ORIENTATION=ORI_642
1.20212007, 3, CFRP, 0.
** SOURCE_TET=1480
*ELSET, ELSET=ELEM_643
643
*ORIENTATION, NAME=ORI_643, SYSTEM=RECTANGULAR
41.69427683, 71.19693546, 164.92858827, 41.24024850, 70.54851398, 166.10051313
3, 0.
*SHELL SECTION, ELSET=ELEM_643, COMPOSITE, ORIENTATION=ORI_643
1.20196414, 3, CFRP, 0.
** SOURCE_TET=1459
*ELSET, ELSET=ELEM_644
644
*ORIENTATION, NAME=ORI_644, SYSTEM=RECTANGULAR
-30.52104706, 26.23428896, 201.13529102, -29.62122829, 25.30817152, 201.71203419
3, 0.
*SHELL SECTION, ELSET=ELEM_644, COMPOSITE, ORIENTATION=ORI_644
1.20345354, 3, CFRP, 0.
** SOURCE_TET=1711
*ELSET, ELSET=ELEM_645
645
*ORIENTATION, NAME=ORI_645, SYSTEM=RECTANGULAR
-28.51977912, 32.96546958, 199.66836415, -27.73956770, 31.94980459, 200.26810974
3, 0.
*SHELL SECTION, ELSET=ELEM_645, COMPOSITE, ORIENTATION=ORI_645
1.20338142, 3, CFRP, 0.
** SOURCE_TET=2263
*ELSET, ELSET=ELEM_646
646
*ORIENTATION, NAME=ORI_646, SYSTEM=RECTANGULAR
-21.25448204, 33.95323464, 201.37498514, -20.68068321, 32.78613212, 201.93052688
3, 0.
*SHELL SECTION, ELSET=ELEM_646, COMPOSITE, ORIENTATION=ORI_646
1.20342517, 3, CFRP, 0.
** SOURCE_TET=821
*ELSET, ELSET=ELEM_647
647
*ORIENTATION, NAME=ORI_647, SYSTEM=RECTANGULAR
-38.01170952, 13.56931537, 201.01999215, -36.83871434, 13.01925244, 201.58701338
3, 0.
*SHELL SECTION, ELSET=ELEM_647, COMPOSITE, ORIENTATION=ORI_647
1.20345187, 3, CFRP, 0.
** SOURCE_TET=1381
*ELSET, ELSET=ELEM_648
648
*ORIENTATION, NAME=ORI_648, SYSTEM=RECTANGULAR
-32.28516824, 9.95797593, 203.80944031, -31.07203221, 9.43084258, 204.30987153
3, 0.
*SHELL SECTION, ELSET=ELEM_648, COMPOSITE, ORIENTATION=ORI_648
1.20359302, 3, CFRP, 0.
** SOURCE_TET=1307
*ELSET, ELSET=ELEM_649
649
*ORIENTATION, NAME=ORI_649, SYSTEM=RECTANGULAR
-37.62337354, 23.42054692, 199.19371001, -36.60869963, 22.65521632, 199.81395669
3, 0.
*SHELL SECTION, ELSET=ELEM_649, COMPOSITE, ORIENTATION=ORI_649
1.20327628, 3, CFRP, 0.
** SOURCE_TET=2008
*ELSET, ELSET=ELEM_650
650
*ORIENTATION, NAME=ORI_650, SYSTEM=RECTANGULAR
0.34999907, -32.61831083, 204.26506912, 0.41764165, -31.28166241, 204.72201057
3, 0.
*SHELL SECTION, ELSET=ELEM_650, COMPOSITE, ORIENTATION=ORI_650
1.20360577, 3, CFRP, 0.
** SOURCE_TET=1056
*ELSET, ELSET=ELEM_651
651
*ORIENTATION, NAME=ORI_651, SYSTEM=RECTANGULAR
-4.88645096, -37.65186732, 202.26048742, -4.67944528, -36.35629797, 202.78835927
3, 0.
*SHELL SECTION, ELSET=ELEM_651, COMPOSITE, ORIENTATION=ORI_651
1.20349610, 3, CFRP, 0.
** SOURCE_TET=872
*ELSET, ELSET=ELEM_652
652
*ORIENTATION, NAME=ORI_652, SYSTEM=RECTANGULAR
11.85553888, 40.53613261, 200.08387168, 11.41685442, 39.33109276, 200.68005529
3, 0.
*SHELL SECTION, ELSET=ELEM_652, COMPOSITE, ORIENTATION=ORI_652
1.20337737, 3, CFRP, 0.
** SOURCE_TET=656
*ELSET, ELSET=ELEM_653
653
*ORIENTATION, NAME=ORI_653, SYSTEM=RECTANGULAR
4.18252837, 34.67066566, 203.20930272, 3.88355286, 33.36592605, 203.66566683
3, 0.
*SHELL SECTION, ELSET=ELEM_653, COMPOSITE, ORIENTATION=ORI_653
1.20362079, 3, CFRP, 0.
** SOURCE_TET=2079
*ELSET, ELSET=ELEM_654
654
*ORIENTATION, NAME=ORI_654, SYSTEM=RECTANGULAR
-6.04225577, 35.69516262, 202.84102611, -5.92836752, 34.38873559, 203.37043888
3, 0.
*SHELL SECTION, ELSET=ELEM_654, COMPOSITE, ORIENTATION=ORI_654
1.20355940, 3, CFRP, 0.
** SOURCE_TET=1416
*ELSET, ELSET=ELEM_655
655
*ORIENTATION, NAME=ORI_655, SYSTEM=RECTANGULAR
29.19641963, 45.48840979, 193.45791359, 28.49072397, 44.53459510, 194.22747917
3, 0.
*SHELL SECTION, ELSET=ELEM_655, COMPOSITE, ORIENTATION=ORI_655
1.20304155, 3, CFRP, 0.
** SOURCE_TET=2281
*ELSET, ELSET=ELEM_656
656
*ORIENTATION, NAME=ORI_656, SYSTEM=RECTANGULAR
64.90273687, 44.30618202, 170.20446635, 64.15733389, 43.85929792, 171.32011370
3, 0.
*SHELL SECTION, ELSET=ELEM_656, COMPOSITE, ORIENTATION=ORI_656
1.20210218, 3, CFRP, 0.
** SOURCE_TET=685
*ELSET, ELSET=ELEM_657
657
*ORIENTATION, NAME=ORI_657, SYSTEM=RECTANGULAR
59.91417147, 56.21079894, 165.42254128, 59.28487479, 55.73312759, 166.59549301
3, 0.
*SHELL SECTION, ELSET=ELEM_657, COMPOSITE, ORIENTATION=ORI_657
1.20198238, 3, CFRP, 0.
** SOURCE_TET=1665
*ELSET, ELSET=ELEM_658
658
*ORIENTATION, NAME=ORI_658, SYSTEM=RECTANGULAR
-89.44273438, 21.69597828, 146.18919346, -88.96016506, 21.49374820, 147.50305413
3, 0.
*SHELL SECTION, ELSET=ELEM_658, COMPOSITE, ORIENTATION=ORI_658
1.20149374, 3, CFRP, 0.
** SOURCE_TET=1516
*ELSET, ELSET=ELEM_659
659
*ORIENTATION, NAME=ORI_659, SYSTEM=RECTANGULAR
-89.05445057, 8.21586378, 152.04542917, -88.47893219, 8.09463987, 153.33154089
3, 0.
*SHELL SECTION, ELSET=ELEM_659, COMPOSITE, ORIENTATION=ORI_659
1.20152617, 3, CFRP, 0.
** SOURCE_TET=2410
*ELSET, ELSET=ELEM_660
660
*ORIENTATION, NAME=ORI_660, SYSTEM=RECTANGULAR
-83.10313250, 6.10544422, 164.04595680, -82.35370344, 5.96637210, 165.23718097
3, 0.
*SHELL SECTION, ELSET=ELEM_660, COMPOSITE, ORIENTATION=ORI_660
1.20200312, 3, CFRP, 0.
** SOURCE_TET=1892
*ELSET, ELSET=ELEM_661
661
*ORIENTATION, NAME=ORI_661, SYSTEM=RECTANGULAR
-26.16323935, -30.60007348, 201.16675123, -25.21489182, -29.72637024, 201.74750902
3, 0.
*SHELL SECTION, ELSET=ELEM_661, COMPOSITE, ORIENTATION=ORI_661
1.20342791, 3, CFRP, 0.
** SOURCE_TET=2394
*ELSET, ELSET=ELEM_662
662
*ORIENTATION, NAME=ORI_662, SYSTEM=RECTANGULAR
-28.19483076, -23.95263153, 202.60797396, -27.12752820, -23.18663304, 203.13153060
3, 0.
*SHELL SECTION, ELSET=ELEM_662, COMPOSITE, ORIENTATION=ORI_662
1.20349455, 3, CFRP, 0.
** SOURCE_TET=2322
*ELSET, ELSET=ELEM_663
663
*ORIENTATION, NAME=ORI_663, SYSTEM=RECTANGULAR
-19.43685750, -32.52162453, 202.38132067, -18.71293740, -31.43213610, 202.91886568
3, 0.
*SHELL SECTION, ELSET=ELEM_663, COMPOSITE, ORIENTATION=ORI_663
1.20351553, 3, CFRP, 0.
** SOURCE_TET=1966
*ELSET, ELSET=ELEM_664
664
*ORIENTATION, NAME=ORI_664, SYSTEM=RECTANGULAR
-15.89388773, -37.58593536, 201.06666030, -15.30042626, -36.44040185, 201.64593265
3, 0.
*SHELL SECTION, ELSET=ELEM_664, COMPOSITE, ORIENTATION=ORI_664
1.20345211, 3, CFRP, 0.
** SOURCE_TET=2141
*ELSET, ELSET=ELEM_665
665
*ORIENTATION, NAME=ORI_665, SYSTEM=RECTANGULAR
-16.62576438, -43.16175242, 198.38345301, -16.11857756, -42.01204321, 199.03224439
3, 0.
*SHELL SECTION, ELSET=ELEM_665, COMPOSITE, ORIENTATION=ORI_665
1.20322943, 3, CFRP, 0.
** SOURCE_TET=1725
*ELSET, ELSET=ELEM_666
666
*ORIENTATION, NAME=ORI_666, SYSTEM=RECTANGULAR
-10.88696693, -29.08657372, 204.88494064, -10.30155868, -27.87194952, 205.31153791
3, 0.
*SHELL SECTION, ELSET=ELEM_666, COMPOSITE, ORIENTATION=ORI_666
1.20362222, 3, CFRP, 0.
** SOURCE_TET=2028
*ELSET, ELSET=ELEM_667
667
*ORIENTATION, NAME=ORI_667, SYSTEM=RECTANGULAR
-16.12039780, -27.77267076, 204.55476712, -15.38982072, -26.64351564, 204.99210664
3, 0.
*SHELL SECTION, ELSET=ELEM_667, COMPOSITE, ORIENTATION=ORI_667
1.20362222, 3, CFRP, 0.
** SOURCE_TET=1495
*ELSET, ELSET=ELEM_668
668
*ORIENTATION, NAME=ORI_668, SYSTEM=RECTANGULAR
7.45276723, -79.89597672, 168.20439678, 7.46334279, -79.09768301, 169.37170792
3, 0.
*SHELL SECTION, ELSET=ELEM_668, COMPOSITE, ORIENTATION=ORI_668
1.20200717, 3, CFRP, 0.
** SOURCE_TET=943
*ELSET, ELSET=ELEM_669
669
*ORIENTATION, NAME=ORI_669, SYSTEM=RECTANGULAR
-37.83675037, -81.20601507, 150.94472400, -37.52094984, -80.71956101, 152.23454278
3, 0.
*SHELL SECTION, ELSET=ELEM_669, COMPOSITE, ORIENTATION=ORI_669
1.20146632, 3, CFRP, 0.
** SOURCE_TET=806
*ELSET, ELSET=ELEM_670
670
*ORIENTATION, NAME=ORI_670, SYSTEM=RECTANGULAR
35.08545454, -78.97725780, 158.04031750, 34.89268143, -78.33713299, 159.28654330
3, 0.
*SHELL SECTION, ELSET=ELEM_670, COMPOSITE, ORIENTATION=ORI_670
1.20181310, 3, CFRP, 0.
** SOURCE_TET=2254
*ELSET, ELSET=ELEM_671
671
*ORIENTATION, NAME=ORI_671, SYSTEM=RECTANGULAR
48.55378442, -71.38325384, 158.10233413, 48.23578928, -70.79141456, 159.34676386
3, 0.
*SHELL SECTION, ELSET=ELEM_671, COMPOSITE, ORIENTATION=ORI_671
1.20167994, 3, CFRP, 0.
** SOURCE_TET=1224
*ELSET, ELSET=ELEM_672
672
*ORIENTATION, NAME=ORI_672, SYSTEM=RECTANGULAR
30.83959007, -86.11823689, 147.02944776, 30.73100099, -85.56514299, 148.32648113
3, 0.
*SHELL SECTION, ELSET=ELEM_672, COMPOSITE, ORIENTATION=ORI_672
1.20140624, 3, CFRP, 0.
** SOURCE_TET=2324
*ELSET, ELSET=ELEM_673
673
*ORIENTATION, NAME=ORI_673, SYSTEM=RECTANGULAR
26.67618296, 87.21539331, 148.68747786, 26.44673554, 86.71906223, 149.99170534
3, 0.
*SHELL SECTION, ELSET=ELEM_673, COMPOSITE, ORIENTATION=ORI_673
1.20143914, 3, CFRP, 0.
** SOURCE_TET=2317
*ELSET, ELSET=ELEM_674
674
*ORIENTATION, NAME=ORI_674, SYSTEM=RECTANGULAR
-80.21628085, -13.70852156, 166.79153423, -79.40378939, -13.64262102, 167.94717896
3, 0.
*SHELL SECTION, ELSET=ELEM_674, COMPOSITE, ORIENTATION=ORI_674
1.20198905, 3, CFRP, 0.
** SOURCE_TET=968
*ELSET, ELSET=ELEM_675
675
*ORIENTATION, NAME=ORI_675, SYSTEM=RECTANGULAR
-75.59553995, -53.39877792, 145.59968735, -75.13550273, -53.14865968, 146.91338695
3, 0.
*SHELL SECTION, ELSET=ELEM_675, COMPOSITE, ORIENTATION=ORI_675
1.20136213, 3, CFRP, 0.
** SOURCE_TET=2345
*ELSET, ELSET=ELEM_676
676
*ORIENTATION, NAME=ORI_676, SYSTEM=RECTANGULAR
-82.49849913, -47.99692412, 137.25424773, -82.09858186, -47.86981536, 138.60476968
3, 0.
*SHELL SECTION, ELSET=ELEM_676, COMPOSITE, ORIENTATION=ORI_676
1.20118845, 3, CFRP, 0.
** SOURCE_TET=816
*ELSET, ELSET=ELEM_677
677
*ORIENTATION, NAME=ORI_677, SYSTEM=RECTANGULAR
72.72288764, -48.96814641, 154.69506229, 72.26379212, -48.56350574, 155.97001219
3, 0.
*SHELL SECTION, ELSET=ELEM_677, COMPOSITE, ORIENTATION=ORI_677
1.20176005, 3, CFRP, 0.
** SOURCE_TET=628
*ELSET, ELSET=ELEM_678
678
*ORIENTATION, NAME=ORI_678, SYSTEM=RECTANGULAR
64.64215758, -46.43741050, 168.79886076, 64.00206862, -45.88007417, 169.93008238
3, 0.
*SHELL SECTION, ELSET=ELEM_678, COMPOSITE, ORIENTATION=ORI_678
1.20208156, 3, CFRP, 0.
** SOURCE_TET=1592
*ELSET, ELSET=ELEM_679
679
*ORIENTATION, NAME=ORI_679, SYSTEM=RECTANGULAR
-33.04901209, -1.77025008, 204.14743603, -31.71768015, -1.81582383, 204.62228158
3, 0.
*SHELL SECTION, ELSET=ELEM_679, COMPOSITE, ORIENTATION=ORI_679
1.20362222, 3, CFRP, 0.
** SOURCE_TET=1849
*ELSET, ELSET=ELEM_680
680
*ORIENTATION, NAME=ORI_680, SYSTEM=RECTANGULAR
-31.22972854, 3.75527156, 204.74511123, -29.90831325, 3.52633562, 205.19394301
3, 0.
*SHELL SECTION, ELSET=ELEM_680, COMPOSITE, ORIENTATION=ORI_680
1.20362222, 3, CFRP, 0.
** SOURCE_TET=2347
*ELSET, ELSET=ELEM_681
681
*ORIENTATION, NAME=ORI_681, SYSTEM=RECTANGULAR
69.14633430, -33.47678125, 172.82879620, 68.35325538, -33.00273564, 173.89945329
3, 0.
*SHELL SECTION, ELSET=ELEM_681, COMPOSITE, ORIENTATION=ORI_681
1.20232356, 3, CFRP, 0.
** SOURCE_TET=1279
*ELSET, ELSET=ELEM_682
682
*ORIENTATION, NAME=ORI_682, SYSTEM=RECTANGULAR
-43.57399463, 75.20751453, 158.11863315, -43.27685607, 74.53162171, 159.32481621
3, 0.
*SHELL SECTION, ELSET=ELEM_682, COMPOSITE, ORIENTATION=ORI_682
1.20181727, 3, CFRP, 0.
** SOURCE_TET=522
*ELSET, ELSET=ELEM_683
683
*ORIENTATION, NAME=ORI_683, SYSTEM=RECTANGULAR
-63.19630540, 57.78946584, 159.96804872, -62.75444182, 57.25789849, 161.20182047
3, 0.
*SHELL SECTION, ELSET=ELEM_683, COMPOSITE, ORIENTATION=ORI_683
1.20180130, 3, CFRP, 0.
** SOURCE_TET=1869
*ELSET, ELSET=ELEM_684
684
*ORIENTATION, NAME=ORI_684, SYSTEM=RECTANGULAR
-27.45404951, 85.83321279, 151.18397167, -27.36204313, 85.25321156, 152.47049155
3, 0.
*SHELL SECTION, ELSET=ELEM_684, COMPOSITE, ORIENTATION=ORI_684
1.20163071, 3, CFRP, 0.
** SOURCE_TET=2012
*ELSET, ELSET=ELEM_685
685
*ORIENTATION, NAME=ORI_685, SYSTEM=RECTANGULAR
-37.27486994, 82.68304572, 150.11833754, -37.10461871, 82.13016709, 151.40881797
3, 0.
*SHELL SECTION, ELSET=ELEM_685, COMPOSITE, ORIENTATION=ORI_685
1.20146930, 3, CFRP, 0.
** SOURCE_TET=2056
*ELSET, ELSET=ELEM_686
686
*ORIENTATION, NAME=ORI_686, SYSTEM=RECTANGULAR
-21.92503104, 81.32459447, 162.74768388, -21.80993771, 80.57190613, 163.93941111
3, 0.
*SHELL SECTION, ELSET=ELEM_686, COMPOSITE, ORIENTATION=ORI_686
1.20188606, 3, CFRP, 0.
** SOURCE_TET=2196
*ELSET, ELSET=ELEM_687
687
*ORIENTATION, NAME=ORI_687, SYSTEM=RECTANGULAR
-80.72792725, 48.29995754, 141.13542543, -80.36947030, 47.99568414, 142.46918940
3, 0.
*SHELL SECTION, ELSET=ELEM_687, COMPOSITE, ORIENTATION=ORI_687
1.20138288, 3, CFRP, 0.
** SOURCE_TET=2256
*ELSET, ELSET=ELEM_688
688
*ORIENTATION, NAME=ORI_688, SYSTEM=RECTANGULAR
-12.00807670, 82.90726287, 163.36886853, -11.96022038, 82.13787390, 164.55451197
3, 0.
*SHELL SECTION, ELSET=ELEM_688, COMPOSITE, ORIENTATION=ORI_688
1.20190179, 3, CFRP, 0.
** SOURCE_TET=1600
*ELSET, ELSET=ELEM_689
689
*ORIENTATION, NAME=ORI_689, SYSTEM=RECTANGULAR
22.26075345, 39.26762488, 198.67338384, 21.55284997, 38.21676008, 199.30152064
3, 0.
*SHELL SECTION, ELSET=ELEM_689, COMPOSITE, ORIENTATION=ORI_689
1.20324469, 3, CFRP, 0.
** SOURCE_TET=195
*ELSET, ELSET=ELEM_690
690
*ORIENTATION, NAME=ORI_690, SYSTEM=RECTANGULAR
5.14655699, 29.30581287, 204.99477323, 4.78869422, 28.03387754, 205.49887121
3, 0.
*SHELL SECTION, ELSET=ELEM_690, COMPOSITE, ORIENTATION=ORI_690
1.20362222, 3, CFRP, 0.
** SOURCE_TET=2427
*ELSET, ELSET=ELEM_691
691
*ORIENTATION, NAME=ORI_691, SYSTEM=RECTANGULAR
-57.35508891, -61.76976563, 162.45784846, -56.80952625, -61.26738079, 163.66199581
3, 0.
*SHELL SECTION, ELSET=ELEM_691, COMPOSITE, ORIENTATION=ORI_691
1.20189607, 3, CFRP, 0.
** SOURCE_TET=2078
*ELSET, ELSET=ELEM_692
692
*ORIENTATION, NAME=ORI_692, SYSTEM=RECTANGULAR
-79.31315031, -3.51012402, 169.81812058, -78.46118450, -3.58269404, 170.94456981
3, 0.
*SHELL SECTION, ELSET=ELEM_692, COMPOSITE, ORIENTATION=ORI_692
1.20214295, 3, CFRP, 0.
** SOURCE_TET=1113
*ELSET, ELSET=ELEM_693
693
*ORIENTATION, NAME=ORI_693, SYSTEM=RECTANGULAR
-10.29961120, -35.35926458, 202.72783292, -9.80084508, -34.14046162, 203.24334403
3, 0.
*SHELL SECTION, ELSET=ELEM_693, COMPOSITE, ORIENTATION=ORI_693
1.20353830, 3, CFRP, 0.
** SOURCE_TET=1902
*ELSET, ELSET=ELEM_694
694
*ORIENTATION, NAME=ORI_694, SYSTEM=RECTANGULAR
41.05486975, 37.22489076, -192.31918540, 41.84067298, 38.06045271, -191.49193120
3, 0.
*SHELL SECTION, ELSET=ELEM_694, COMPOSITE, ORIENTATION=ORI_694
1.20286548, 3, CFRP, 0.
** SOURCE_TET=2050
*ELSET, ELSET=ELEM_695
695
*ORIENTATION, NAME=ORI_695, SYSTEM=RECTANGULAR
49.70040782, 37.77175810, -186.99123444, 50.51157500, 38.52879552, -186.11436377
3, 0.
*SHELL SECTION, ELSET=ELEM_695, COMPOSITE, ORIENTATION=ORI_695
1.20269465, 3, CFRP, 0.
** SOURCE_TET=2451
*ELSET, ELSET=ELEM_696
696
*ORIENTATION, NAME=ORI_696, SYSTEM=RECTANGULAR
60.24302144, 29.98220216, -183.08543402, 61.14576897, 30.51453044, -182.13586913
3, 0.
*SHELL SECTION, ELSET=ELEM_696, COMPOSITE, ORIENTATION=ORI_696
1.20257139, 3, CFRP, 0.
** SOURCE_TET=2338
*ELSET, ELSET=ELEM_697
697
*ORIENTATION, NAME=ORI_697, SYSTEM=RECTANGULAR
40.51565312, 29.32261180, -196.03705875, 41.45699049, 30.04053595, -195.26345105
3, 0.
*SHELL SECTION, ELSET=ELEM_697, COMPOSITE, ORIENTATION=ORI_697
1.20314646, 3, CFRP, 0.
** SOURCE_TET=805
*ELSET, ELSET=ELEM_698
698
*ORIENTATION, NAME=ORI_698, SYSTEM=RECTANGULAR
61.01129595, -28.05144030, -182.78359348, 61.96518248, -28.43399330, -181.81212362
3, 0.
*SHELL SECTION, ELSET=ELEM_698, COMPOSITE, ORIENTATION=ORI_698
1.20256972, 3, CFRP, 0.
** SOURCE_TET=2354
*ELSET, ELSET=ELEM_699
699
*ORIENTATION, NAME=ORI_699, SYSTEM=RECTANGULAR
50.89912638, -34.88539694, -187.72571718, 51.86414508, -35.43317381, -186.84897355
3, 0.
*SHELL SECTION, ELSET=ELEM_699, COMPOSITE, ORIENTATION=ORI_699
1.20271540, 3, CFRP, 0.
** SOURCE_TET=1790
*ELSET, ELSET=ELEM_700
700
*ORIENTATION, NAME=ORI_700, SYSTEM=RECTANGULAR
44.07158334, -30.97688430, -193.55376413, 45.06035987, -31.58647825, -192.74709431
3, 0.
*SHELL SECTION, ELSET=ELEM_700, COMPOSITE, ORIENTATION=ORI_700
1.20304370, 3, CFRP, 0.
** SOURCE_TET=2437
*ELSET, ELSET=ELEM_701
701
*ORIENTATION, NAME=ORI_701, SYSTEM=RECTANGULAR
42.44523455, -22.85998857, -197.09583120, 43.53792700, -23.40691023, -196.38386216
3, 0.
*SHELL SECTION, ELSET=ELEM_701, COMPOSITE, ORIENTATION=ORI_701
1.20317543, 3, CFRP, 0.
** SOURCE_TET=463
*ELSET, ELSET=ELEM_702
702
*ORIENTATION, NAME=ORI_702, SYSTEM=RECTANGULAR
-49.59640269, -77.19222924, -145.45014697, -49.80735647, -77.68158849, -144.14017520
3, 0.
*SHELL SECTION, ELSET=ELEM_702, COMPOSITE, ORIENTATION=ORI_702
1.20134556, 3, CFRP, 0.
** SOURCE_TET=867
*ELSET, ELSET=ELEM_703
703
*ORIENTATION, NAME=ORI_703, SYSTEM=RECTANGULAR
-59.03514187, -67.31303911, -152.05351950, -59.35639134, -67.79210498, -150.76228185
3, 0.
*SHELL SECTION, ELSET=ELEM_703, COMPOSITE, ORIENTATION=ORI_703
1.20166588, 3, CFRP, 0.
** SOURCE_TET=1646
*ELSET, ELSET=ELEM_704
704
*ORIENTATION, NAME=ORI_704, SYSTEM=RECTANGULAR
-68.54666239, -63.46570968, -143.07171838, -68.84079308, -63.83360590, -141.73824940
3, 0.
*SHELL SECTION, ELSET=ELEM_704, COMPOSITE, ORIENTATION=ORI_704
1.20127273, 3, CFRP, 0.
** SOURCE_TET=834
*ELSET, ELSET=ELEM_705
705
*ORIENTATION, NAME=ORI_705, SYSTEM=RECTANGULAR
-7.70535031, -18.25853530, -207.85381907, -8.13630836, -19.57347540, -207.56191554
3, 0.
*SHELL SECTION, ELSET=ELEM_705, COMPOSITE, ORIENTATION=ORI_705
1.20362008, 3, CFRP, 0.
** SOURCE_TET=1937
*ELSET, ELSET=ELEM_706
706
*ORIENTATION, NAME=ORI_706, SYSTEM=RECTANGULAR
-12.91565724, -17.28253324, -207.52648116, -13.71520822, -18.40439340, -207.20687515
3, 0.
*SHELL SECTION, ELSET=ELEM_706, COMPOSITE, ORIENTATION=ORI_706
1.20362008, 3, CFRP, 0.
** SOURCE_TET=2128
*ELSET, ELSET=ELEM_707
707
*ORIENTATION, NAME=ORI_707, SYSTEM=RECTANGULAR
-20.55803730, -13.93203937, -206.70350086, -21.66847526, -14.72248759, -206.32651394
3, 0.
*SHELL SECTION, ELSET=ELEM_707, COMPOSITE, ORIENTATION=ORI_707
1.20362008, 3, CFRP, 0.
** SOURCE_TET=385
*ELSET, ELSET=ELEM_708
708
*ORIENTATION, NAME=ORI_708, SYSTEM=RECTANGULAR
-21.04439096, -1.14410697, -207.50142638, -22.42452045, -1.22529540, -207.20368314
3, 0.
*SHELL SECTION, ELSET=ELEM_708, COMPOSITE, ORIENTATION=ORI_708
1.20362008, 3, CFRP, 0.
** SOURCE_TET=346
*ELSET, ELSET=ELEM_709
709
*ORIENTATION, NAME=ORI_709, SYSTEM=RECTANGULAR
-16.16735931, -1.27217379, -208.51271334, -17.55083898, -1.36248073, -208.23373546
3, 0.
*SHELL SECTION, ELSET=ELEM_709, COMPOSITE, ORIENTATION=ORI_709
1.20362008, 3, CFRP, 0.
** SOURCE_TET=701
*ELSET, ELSET=ELEM_710
710
*ORIENTATION, NAME=ORI_710, SYSTEM=RECTANGULAR
-25.56001334, -5.52086756, -206.26364939, -26.87840679, -5.86743251, -205.88717703
3, 0.
*SHELL SECTION, ELSET=ELEM_710, COMPOSITE, ORIENTATION=ORI_710
1.20362008, 3, CFRP, 0.
** SOURCE_TET=1384
*ELSET, ELSET=ELEM_711
711
*ORIENTATION, NAME=ORI_711, SYSTEM=RECTANGULAR
-25.30340830, -11.43953048, -205.77010378, -26.50029826, -12.08313892, -205.37866719
3, 0.
*SHELL SECTION, ELSET=ELEM_711, COMPOSITE, ORIENTATION=ORI_711
1.20362008, 3, CFRP, 0.
** SOURCE_TET=1330
*ELSET, ELSET=ELEM_712
712
*ORIENTATION, NAME=ORI_712, SYSTEM=RECTANGULAR
4.93163602, -20.29727199, -207.51932041, 5.30062074, -21.63038329, -207.22493200
3, 0.
*SHELL SECTION, ELSET=ELEM_712, COMPOSITE, ORIENTATION=ORI_712
1.20362008, 3, CFRP, 0.
** SOURCE_TET=904
*ELSET, ELSET=ELEM_713
713
*ORIENTATION, NAME=ORI_713, SYSTEM=RECTANGULAR
4.39286278, -15.43383416, -208.53589534, 4.79403573, -16.75962249, -208.25068394
3, 0.
*SHELL SECTION, ELSET=ELEM_713, COMPOSITE, ORIENTATION=ORI_713
1.20362008, 3, CFRP, 0.
** SOURCE_TET=961
*ELSET, ELSET=ELEM_714
714
*ORIENTATION, NAME=ORI_714, SYSTEM=RECTANGULAR
-5.42495758, -22.77958626, -207.05832728, -5.68317380, -24.12801747, -206.71912578
3, 0.
*SHELL SECTION, ELSET=ELEM_714, COMPOSITE, ORIENTATION=ORI_714
1.20362008, 3, CFRP, 0.
** SOURCE_TET=1073
*ELSET, ELSET=ELEM_715
715
*ORIENTATION, NAME=ORI_715, SYSTEM=RECTANGULAR
0.11765507, -24.24408423, -206.86172192, 0.11809572, -25.61608224, -206.51876235
3, 0.
*SHELL SECTION, ELSET=ELEM_715, COMPOSITE, ORIENTATION=ORI_715
1.20362008, 3, CFRP, 0.
** SOURCE_TET=1195
*ELSET, ELSET=ELEM_716
716
*ORIENTATION, NAME=ORI_716, SYSTEM=RECTANGULAR
-16.72707865, -21.61231474, -206.00054502, -17.47770041, -22.73960770, -205.59338711
3, 0.
*SHELL SECTION, ELSET=ELEM_716, COMPOSITE, ORIENTATION=ORI_716
1.20362008, 3, CFRP, 0.
** SOURCE_TET=2005
*ELSET, ELSET=ELEM_717
717
*ORIENTATION, NAME=ORI_717, SYSTEM=RECTANGULAR
-21.62915635, -20.32616369, -205.27864124, -22.62187185, -21.23909730, -204.85312017
3, 0.
*SHELL SECTION, ELSET=ELEM_717, COMPOSITE, ORIENTATION=ORI_717
1.20362008, 3, CFRP, 0.
** SOURCE_TET=1543
*ELSET, ELSET=ELEM_718
718
*ORIENTATION, NAME=ORI_718, SYSTEM=RECTANGULAR
-61.91194401, 64.99221418, -151.41835712, -62.37188483, 65.35579923, -150.13139933
3, 0.
*SHELL SECTION, ELSET=ELEM_718, COMPOSITE, ORIENTATION=ORI_718
1.20149863, 3, CFRP, 0.
** SOURCE_TET=1188
*ELSET, ELSET=ELEM_719
719
*ORIENTATION, NAME=ORI_719, SYSTEM=RECTANGULAR
-53.25232107, 72.91639376, -151.01433481, -53.64282764, 73.33777834, -149.72207336
3, 0.
*SHELL SECTION, ELSET=ELEM_719, COMPOSITE, ORIENTATION=ORI_719
1.20161414, 3, CFRP, 0.
** SOURCE_TET=122
*ELSET, ELSET=ELEM_720
720
*ORIENTATION, NAME=ORI_720, SYSTEM=RECTANGULAR
-47.12321282, 80.59406817, -143.01264291, -47.36085088, 80.87170031, -141.64646263
3, 0.
*SHELL SECTION, ELSET=ELEM_720, COMPOSITE, ORIENTATION=ORI_720
1.20127726, 3, CFRP, 0.
** SOURCE_TET=459
*ELSET, ELSET=ELEM_721
721
*ORIENTATION, NAME=ORI_721, SYSTEM=RECTANGULAR
-71.55942337, 60.84484140, -140.92066346, -71.91885592, 61.05901151, -139.56976028
3, 0.
*SHELL SECTION, ELSET=ELEM_721, COMPOSITE, ORIENTATION=ORI_721
1.20127499, 3, CFRP, 0.
** SOURCE_TET=516
*ELSET, ELSET=ELEM_722
722
*ORIENTATION, NAME=ORI_722, SYSTEM=RECTANGULAR
-9.18216812, 17.70908019, -207.85425862, -9.91014502, 18.88562511, -207.56135643
3, 0.
*SHELL SECTION, ELSET=ELEM_722, COMPOSITE, ORIENTATION=ORI_722
1.20362008, 3, CFRP, 0.
** SOURCE_TET=1536
*ELSET, ELSET=ELEM_723
723
*ORIENTATION, NAME=ORI_723, SYSTEM=RECTANGULAR
-14.57769209, 16.43165985, -207.40645411, -15.51315991, 17.44055771, -207.07930723
3, 0.
*SHELL SECTION, ELSET=ELEM_723, COMPOSITE, ORIENTATION=ORI_723
1.20362008, 3, CFRP, 0.
** SOURCE_TET=2214
*ELSET, ELSET=ELEM_724
724
*ORIENTATION, NAME=ORI_724, SYSTEM=RECTANGULAR
-21.44977872, 9.08149338, -207.09950396, -22.73273476, 9.57193007, -206.76261280
3, 0.
*SHELL SECTION, ELSET=ELEM_724, COMPOSITE, ORIENTATION=ORI_724
1.20362008, 3, CFRP, 0.
** SOURCE_TET=749
*ELSET, ELSET=ELEM_725
725
*ORIENTATION, NAME=ORI_725, SYSTEM=RECTANGULAR
-23.74847555, 4.12450293, -206.89478018, -25.11228393, 4.28060880, -206.55469537
3, 0.
*SHELL SECTION, ELSET=ELEM_725, COMPOSITE, ORIENTATION=ORI_725
1.20362008, 3, CFRP, 0.
** SOURCE_TET=1410
*ELSET, ELSET=ELEM_726
726
*ORIENTATION, NAME=ORI_726, SYSTEM=RECTANGULAR
-6.85572340, 23.45008968, -206.75471768, -7.25199595, 24.75674714, -206.38645915
3, 0.
*SHELL SECTION, ELSET=ELEM_726, COMPOSITE, ORIENTATION=ORI_726
1.20362008, 3, CFRP, 0.
** SOURCE_TET=1974
*ELSET, ELSET=ELEM_727
727
*ORIENTATION, NAME=ORI_727, SYSTEM=RECTANGULAR
-1.29166738, 23.66821942, -206.95488685, -1.44621690, 25.02808406, -206.59868097
3, 0.
*SHELL SECTION, ELSET=ELEM_727, COMPOSITE, ORIENTATION=ORI_727
1.20362008, 3, CFRP, 0.
** SOURCE_TET=852
*ELSET, ELSET=ELEM_728
728
*ORIENTATION, NAME=ORI_728, SYSTEM=RECTANGULAR
0.62742368, 18.32632570, -208.19487809, 0.56096269, 19.71220184, -207.92114420
3, 0.
*SHELL SECTION, ELSET=ELEM_728, COMPOSITE, ORIENTATION=ORI_728
1.20362008, 3, CFRP, 0.
** SOURCE_TET=2168
*ELSET, ELSET=ELEM_729
729
*ORIENTATION, NAME=ORI_729, SYSTEM=RECTANGULAR
-18.58941044, 20.93946948, -205.76866049, -19.54901632, 21.89156086, -205.35311438
3, 0.
*SHELL SECTION, ELSET=ELEM_729, COMPOSITE, ORIENTATION=ORI_729
1.20362008, 3, CFRP, 0.
** SOURCE_TET=2296
*ELSET, ELSET=ELEM_730
730
*ORIENTATION, NAME=ORI_730, SYSTEM=RECTANGULAR
-24.49373759, 19.60416370, -204.70831533, -25.56201693, 20.41313224, -204.25626539
3, 0.
*SHELL SECTION, ELSET=ELEM_730, COMPOSITE, ORIENTATION=ORI_730
1.20362008, 3, CFRP, 0.
** SOURCE_TET=2143
*ELSET, ELSET=ELEM_731
731
*ORIENTATION, NAME=ORI_731, SYSTEM=RECTANGULAR
-25.50825714, 13.32122425, -205.58373146, -26.74313581, 13.86573923, -205.16114642
3, 0.
*SHELL SECTION, ELSET=ELEM_731, COMPOSITE, ORIENTATION=ORI_731
1.20362008, 3, CFRP, 0.
** SOURCE_TET=1786
*ELSET, ELSET=ELEM_732
732
*ORIENTATION, NAME=ORI_732, SYSTEM=RECTANGULAR
-85.04867063, -27.87412180, -151.93963027, -85.56901968, -28.12882706, -150.64952868
3, 0.
*SHELL SECTION, ELSET=ELEM_732, COMPOSITE, ORIENTATION=ORI_732
1.20149052, 3, CFRP, 0.
** SOURCE_TET=907
*ELSET, ELSET=ELEM_733
733
*ORIENTATION, NAME=ORI_733, SYSTEM=RECTANGULAR
-86.30752545, -15.57217077, -155.68718922, -86.90664861, -15.74511661, -154.41788186
3, 0.
*SHELL SECTION, ELSET=ELEM_733, COMPOSITE, ORIENTATION=ORI_733
1.20170546, 3, CFRP, 0.
** SOURCE_TET=460
*ELSET, ELSET=ELEM_734
734
*ORIENTATION, NAME=ORI_734, SYSTEM=RECTANGULAR
-87.87019946, -33.56450047, -140.53404989, -88.25064864, -33.78864774, -139.19054089
3, 0.
*SHELL SECTION, ELSET=ELEM_734, COMPOSITE, ORIENTATION=ORI_734
1.20124757, 3, CFRP, 0.
** SOURCE_TET=347
*ELSET, ELSET=ELEM_735
735
*ORIENTATION, NAME=ORI_735, SYSTEM=RECTANGULAR
-91.54042065, -3.33370174, -146.63745698, -92.05132001, -3.41829021, -145.32146814
3, 0.
*SHELL SECTION, ELSET=ELEM_735, COMPOSITE, ORIENTATION=ORI_735
1.20136225, 3, CFRP, 0.
** SOURCE_TET=494
*ELSET, ELSET=ELEM_736
736
*ORIENTATION, NAME=ORI_736, SYSTEM=RECTANGULAR
4.26436321, 88.34473235, -154.26392756, 4.22046919, 88.96327818, -152.99291444
3, 0.
*SHELL SECTION, ELSET=ELEM_736, COMPOSITE, ORIENTATION=ORI_736
1.20167017, 3, CFRP, 0.
** SOURCE_TET=891
*ELSET, ELSET=ELEM_737
737
*ORIENTATION, NAME=ORI_737, SYSTEM=RECTANGULAR
-6.84311935, 88.48344037, -154.01439308, -6.94730485, 89.09403787, -152.74304888
3, 0.
*SHELL SECTION, ELSET=ELEM_737, COMPOSITE, ORIENTATION=ORI_737
1.20166397, 3, CFRP, 0.
** SOURCE_TET=75
*ELSET, ELSET=ELEM_738
738
*ORIENTATION, NAME=ORI_738, SYSTEM=RECTANGULAR
-17.16260174, 90.91085570, -144.76249822, -17.29889642, 91.29122683, -143.40723382
3, 0.
*SHELL SECTION, ELSET=ELEM_738, COMPOSITE, ORIENTATION=ORI_738
1.20131385, 3, CFRP, 0.
** SOURCE_TET=342
*ELSET, ELSET=ELEM_739
739
*ORIENTATION, NAME=ORI_739, SYSTEM=RECTANGULAR
15.44862068, 91.38931697, -144.28785984, 15.45699543, 91.81772214, -142.94012141
3, 0.
*SHELL SECTION, ELSET=ELEM_739, COMPOSITE, ORIENTATION=ORI_739
1.20130861, 3, CFRP, 0.
** SOURCE_TET=193
*ELSET, ELSET=ELEM_740
740
*ORIENTATION, NAME=ORI_740, SYSTEM=RECTANGULAR
-11.75865089, -86.56773087, -156.03369211, -11.78230118, -87.19714131, -154.76748393
3, 0.
*SHELL SECTION, ELSET=ELEM_740, COMPOSITE, ORIENTATION=ORI_740
1.20166147, 3, CFRP, 0.
** SOURCE_TET=39
*ELSET, ELSET=ELEM_741
741
*ORIENTATION, NAME=ORI_741, SYSTEM=RECTANGULAR
3.43642952, -86.05754309, -157.75939586, 3.53965859, -86.70291861, -156.50526899
3, 0.
*SHELL SECTION, ELSET=ELEM_741, COMPOSITE, ORIENTATION=ORI_741
1.20173442, 3, CFRP, 0.
** SOURCE_TET=303
*ELSET, ELSET=ELEM_742
742
*ORIENTATION, NAME=ORI_742, SYSTEM=RECTANGULAR
-22.43423744, -89.16907191, -145.20801683, -22.46848575, -89.61310754, -143.86575776
3, 0.
*SHELL SECTION, ELSET=ELEM_742, COMPOSITE, ORIENTATION=ORI_742
1.20142877, 3, CFRP, 0.
** SOURCE_TET=294
*ELSET, ELSET=ELEM_743
743
*ORIENTATION, NAME=ORI_743, SYSTEM=RECTANGULAR
14.56235854, -90.03399704, -146.75167565, 14.70772070, -90.54415273, -145.44071760
3, 0.
*SHELL SECTION, ELSET=ELEM_743, COMPOSITE, ORIENTATION=ORI_743
1.20149434, 3, CFRP, 0.
** SOURCE_TET=456
*ELSET, ELSET=ELEM_744
744
*ORIENTATION, NAME=ORI_744, SYSTEM=RECTANGULAR
42.28268509, 81.60661268, -145.25491599, 42.44858101, 82.04099488, -143.91932974
3, 0.
*SHELL SECTION, ELSET=ELEM_744, COMPOSITE, ORIENTATION=ORI_744
1.20135474, 3, CFRP, 0.
** SOURCE_TET=1343
*ELSET, ELSET=ELEM_745
745
*ORIENTATION, NAME=ORI_745, SYSTEM=RECTANGULAR
49.70033378, 73.18938871, -154.03015985, 49.97090609, 73.70146175, -152.73997698
3, 0.
*SHELL SECTION, ELSET=ELEM_745, COMPOSITE, ORIENTATION=ORI_745
1.20153940, 3, CFRP, 0.
** SOURCE_TET=49
*ELSET, ELSET=ELEM_746
746
*ORIENTATION, NAME=ORI_746, SYSTEM=RECTANGULAR
72.46957676, 55.72109941, -145.48904367, 72.81214213, 56.07621025, -144.16369645
3, 0.
*SHELL SECTION, ELSET=ELEM_746, COMPOSITE, ORIENTATION=ORI_746
1.20131743, 3, CFRP, 0.
** SOURCE_TET=795
*ELSET, ELSET=ELEM_747
747
*ORIENTATION, NAME=ORI_747, SYSTEM=RECTANGULAR
61.90003390, 62.16881342, -154.99007602, 62.28032401, 62.62750120, -153.70750635
3, 0.
*SHELL SECTION, ELSET=ELEM_747, COMPOSITE, ORIENTATION=ORI_747
1.20172024, 3, CFRP, 0.
** SOURCE_TET=436
*ELSET, ELSET=ELEM_748
748
*ORIENTATION, NAME=ORI_748, SYSTEM=RECTANGULAR
69.11091509, -59.70801999, -146.40551029, 69.57184928, -59.99590992, -145.09988437
3, 0.
*SHELL SECTION, ELSET=ELEM_748, COMPOSITE, ORIENTATION=ORI_748
1.20149148, 3, CFRP, 0.
** SOURCE_TET=1534
*ELSET, ELSET=ELEM_749
749
*ORIENTATION, NAME=ORI_749, SYSTEM=RECTANGULAR
56.50541313, -70.76732578, -149.32411544, 56.91465870, -71.17266009, -148.03251869
3, 0.
*SHELL SECTION, ELSET=ELEM_749, COMPOSITE, ORIENTATION=ORI_749
1.20143735, 3, CFRP, 0.
** SOURCE_TET=219
*ELSET, ELSET=ELEM_750
750
*ORIENTATION, NAME=ORI_750, SYSTEM=RECTANGULAR
76.45513922, 32.69304215, -163.18911930, 77.12682576, 33.03613352, -161.99282272
3, 0.
*SHELL SECTION, ELSET=ELEM_750, COMPOSITE, ORIENTATION=ORI_750
1.20188832, 3, CFRP, 0.
** SOURCE_TET=194
*ELSET, ELSET=ELEM_751
751
*ORIENTATION, NAME=ORI_751, SYSTEM=RECTANGULAR
81.24934840, 39.89151465, -149.27491273, 81.71324882, 40.19585008, -147.97407595
3, 0.
*SHELL SECTION, ELSET=ELEM_751, COMPOSITE, ORIENTATION=ORI_751
1.20148587, 3, CFRP, 0.
** SOURCE_TET=1910
*ELSET, ELSET=ELEM_752
752
*ORIENTATION, NAME=ORI_752, SYSTEM=RECTANGULAR
89.03853030, 31.57619002, -139.11886399, 89.39504435, 31.76863719, -137.76392421
3, 0.
*SHELL SECTION, ELSET=ELEM_752, COMPOSITE, ORIENTATION=ORI_752
1.20118260, 3, CFRP, 0.
** SOURCE_TET=873
*ELSET, ELSET=ELEM_753
753
*ORIENTATION, NAME=ORI_753, SYSTEM=RECTANGULAR
77.75875180, -28.34812397, -164.41976681, 78.50773083, -28.54325250, -163.23614725
3, 0.
*SHELL SECTION, ELSET=ELEM_753, COMPOSITE, ORIENTATION=ORI_753
1.20195401, 3, CFRP, 0.
** SOURCE_TET=268
*ELSET, ELSET=ELEM_754
754
*ORIENTATION, NAME=ORI_754, SYSTEM=RECTANGULAR
81.32119553, -37.13419434, -152.24649460, 81.86473724, -37.30380163, -150.95196930
3, 0.
*SHELL SECTION, ELSET=ELEM_754, COMPOSITE, ORIENTATION=ORI_754
1.20154476, 3, CFRP, 0.
** SOURCE_TET=617
*ELSET, ELSET=ELEM_755
755
*ORIENTATION, NAME=ORI_755, SYSTEM=RECTANGULAR
88.33467261, -30.52357288, -141.52702547, 88.75972199, -30.60450709, -140.18062929
3, 0.
*SHELL SECTION, ELSET=ELEM_755, COMPOSITE, ORIENTATION=ORI_755
1.20131874, 3, CFRP, 0.
** SOURCE_TET=2474
*ELSET, ELSET=ELEM_756
756
*ORIENTATION, NAME=ORI_756, SYSTEM=RECTANGULAR
19.28025290, -15.73465391, -206.52299618, 20.36083491, -16.56619609, -206.14765614
3, 0.
*SHELL SECTION, ELSET=ELEM_756, COMPOSITE, ORIENTATION=ORI_756
1.20362008, 3, CFRP, 0.
** SOURCE_TET=1857
*ELSET, ELSET=ELEM_757
757
*ORIENTATION, NAME=ORI_757, SYSTEM=RECTANGULAR
27.89465789, -16.35134019, -204.16991182, 29.05083295, -17.02145466, -203.70708805
3, 0.
*SHELL SECTION, ELSET=ELEM_757, COMPOSITE, ORIENTATION=ORI_757
1.20362008, 3, CFRP, 0.
** SOURCE_TET=2219
*ELSET, ELSET=ELEM_758
758
*ORIENTATION, NAME=ORI_758, SYSTEM=RECTANGULAR
16.88151347, -22.71408693, -205.49597042, 17.77805722, -23.73041334, -205.09187892
3, 0.
*SHELL SECTION, ELSET=ELEM_758, COMPOSITE, ORIENTATION=ORI_758
1.20362008, 3, CFRP, 0.
** SOURCE_TET=1364
*ELSET, ELSET=ELEM_759
759
*ORIENTATION, NAME=ORI_759, SYSTEM=RECTANGULAR
21.79637979, -29.90047492, -202.49966460, 22.61203459, -30.92257526, -201.96113126
3, 0.
*SHELL SECTION, ELSET=ELEM_759, COMPOSITE, ORIENTATION=ORI_759
1.20348191, 3, CFRP, 0.
** SOURCE_TET=1676
*ELSET, ELSET=ELEM_760
760
*ORIENTATION, NAME=ORI_760, SYSTEM=RECTANGULAR
29.67804593, -29.42675967, -200.44337653, 30.59834173, -30.31899089, -199.84589926
3, 0.
*SHELL SECTION, ELSET=ELEM_760, COMPOSITE, ORIENTATION=ORI_760
1.20338154, 3, CFRP, 0.
** SOURCE_TET=2441
*ELSET, ELSET=ELEM_761
761
*ORIENTATION, NAME=ORI_761, SYSTEM=RECTANGULAR
33.35742078, -22.87470516, -201.14623902, 34.45755316, -23.54977906, -200.56832554
3, 0.
*SHELL SECTION, ELSET=ELEM_761, COMPOSITE, ORIENTATION=ORI_761
1.20334661, 3, CFRP, 0.
** SOURCE_TET=1016
*ELSET, ELSET=ELEM_762
762
*ORIENTATION, NAME=ORI_762, SYSTEM=RECTANGULAR
24.43027523, 30.49830576, -201.57107192, 25.20064584, 31.52445989, -200.97648230
3, 0.
*SHELL SECTION, ELSET=ELEM_762, COMPOSITE, ORIENTATION=ORI_762
1.20345771, 3, CFRP, 0.
** SOURCE_TET=2343
*ELSET, ELSET=ELEM_763
763
*ORIENTATION, NAME=ORI_763, SYSTEM=RECTANGULAR
19.89506955, 23.19679075, -204.83458576, 20.74091155, 24.25094890, -204.41829033
3, 0.
*SHELL SECTION, ELSET=ELEM_763, COMPOSITE, ORIENTATION=ORI_763
1.20362008, 3, CFRP, 0.
** SOURCE_TET=2667
*ELSET, ELSET=ELEM_764
764
*ORIENTATION, NAME=ORI_764, SYSTEM=RECTANGULAR
31.91016692, 28.64131150, -199.99870042, 32.86427701, 29.48550796, -199.38469204
3, 0.
*SHELL SECTION, ELSET=ELEM_764, COMPOSITE, ORIENTATION=ORI_764
1.20330989, 3, CFRP, 0.
** SOURCE_TET=2514
*ELSET, ELSET=ELEM_765
765
*ORIENTATION, NAME=ORI_765, SYSTEM=RECTANGULAR
27.41044421, 21.39159657, -203.36138634, 28.45910743, 22.20788088, -202.87766601
3, 0.
*SHELL SECTION, ELSET=ELEM_765, COMPOSITE, ORIENTATION=ORI_765
1.20348072, 3, CFRP, 0.
** SOURCE_TET=2501
*ELSET, ELSET=ELEM_766
766
*ORIENTATION, NAME=ORI_766, SYSTEM=RECTANGULAR
15.14561523, 12.78570082, -207.88141953, 16.18151231, 13.70570174, -207.59766695
3, 0.
*SHELL SECTION, ELSET=ELEM_766, COMPOSITE, ORIENTATION=ORI_766
1.20362008, 3, CFRP, 0.
** SOURCE_TET=1818
*ELSET, ELSET=ELEM_767
767
*ORIENTATION, NAME=ORI_767, SYSTEM=RECTANGULAR
9.59068751, 22.75609673, -206.60481209, 10.06470235, 24.03442210, -206.22905396
3, 0.
*SHELL SECTION, ELSET=ELEM_767, COMPOSITE, ORIENTATION=ORI_767
1.20362008, 3, CFRP, 0.
** SOURCE_TET=2233
*ELSET, ELSET=ELEM_768
768
*ORIENTATION, NAME=ORI_768, SYSTEM=RECTANGULAR
14.69336893, 20.20948134, -206.46461718, 15.48690734, 21.31241339, -206.07239571
3, 0.
*SHELL SECTION, ELSET=ELEM_768, COMPOSITE, ORIENTATION=ORI_768
1.20362008, 3, CFRP, 0.
** SOURCE_TET=2457
*ELSET, ELSET=ELEM_769
769
*ORIENTATION, NAME=ORI_769, SYSTEM=RECTANGULAR
5.27730549, 17.32837697, -208.22332917, 5.66653764, 18.66022847, -207.95007119
3, 0.
*SHELL SECTION, ELSET=ELEM_769, COMPOSITE, ORIENTATION=ORI_769
1.20362008, 3, CFRP, 0.
** SOURCE_TET=1189
*ELSET, ELSET=ELEM_770
770
*ORIENTATION, NAME=ORI_770, SYSTEM=RECTANGULAR
10.10864356, -24.13714988, -206.21876038, 10.64660286, -25.38946266, -205.84151710
3, 0.
*SHELL SECTION, ELSET=ELEM_770, COMPOSITE, ORIENTATION=ORI_770
1.20362008, 3, CFRP, 0.
** SOURCE_TET=1165
*ELSET, ELSET=ELEM_771
771
*ORIENTATION, NAME=ORI_771, SYSTEM=RECTANGULAR
17.45663015, -37.33343682, -200.68612634, 17.99881671, -38.49566491, -200.09008977
3, 0.
*SHELL SECTION, ELSET=ELEM_771, COMPOSITE, ORIENTATION=ORI_771
1.20336771, 3, CFRP, 0.
** SOURCE_TET=1074
*ELSET, ELSET=ELEM_772
772
*ORIENTATION, NAME=ORI_772, SYSTEM=RECTANGULAR
8.73045904, -37.00215787, -202.05858982, 9.08811665, -38.25474013, -201.50802762
3, 0.
*SHELL SECTION, ELSET=ELEM_772, COMPOSITE, ORIENTATION=ORI_772
1.20343268, 3, CFRP, 0.
** SOURCE_TET=959
*ELSET, ELSET=ELEM_773
773
*ORIENTATION, NAME=ORI_773, SYSTEM=RECTANGULAR
6.24264108, -30.99761801, -204.62171676, 6.57337249, -32.28067906, -204.12737773
3, 0.
*SHELL SECTION, ELSET=ELEM_773, COMPOSITE, ORIENTATION=ORI_773
1.20356810, 3, CFRP, 0.
** SOURCE_TET=2242
*ELSET, ELSET=ELEM_774
774
*ORIENTATION, NAME=ORI_774, SYSTEM=RECTANGULAR
21.36067357, -44.37525626, -196.54787623, 21.96343738, -45.43954996, -195.83797856
3, 0.
*SHELL SECTION, ELSET=ELEM_774, COMPOSITE, ORIENTATION=ORI_774
1.20311415, 3, CFRP, 0.
** SOURCE_TET=1778
*ELSET, ELSET=ELEM_775
775
*ORIENTATION, NAME=ORI_775, SYSTEM=RECTANGULAR
31.24474188, -43.46487179, -193.82148416, 31.96073048, -44.40444886, -193.04395264
3, 0.
*SHELL SECTION, ELSET=ELEM_775, COMPOSITE, ORIENTATION=ORI_775
1.20301521, 3, CFRP, 0.
** SOURCE_TET=1110
*ELSET, ELSET=ELEM_776
776
*ORIENTATION, NAME=ORI_776, SYSTEM=RECTANGULAR
35.17607389, -35.93675135, -195.93772851, 36.01019411, -36.80918024, -195.20076766
3, 0.
*SHELL SECTION, ELSET=ELEM_776, COMPOSITE, ORIENTATION=ORI_776
1.20309699, 3, CFRP, 0.
** SOURCE_TET=2064
*ELSET, ELSET=ELEM_777
777
*ORIENTATION, NAME=ORI_777, SYSTEM=RECTANGULAR
16.06031756, -51.58905486, -193.58777397, 16.43607939, -52.70671904, -192.80698602
3, 0.
*SHELL SECTION, ELSET=ELEM_777, COMPOSITE, ORIENTATION=ORI_777
1.20297706, 3, CFRP, 0.
** SOURCE_TET=1929
*ELSET, ELSET=ELEM_778
778
*ORIENTATION, NAME=ORI_778, SYSTEM=RECTANGULAR
6.44244597, -51.90844939, -194.67932470, 6.66740454, -53.09200789, -193.93866086
3, 0.
*SHELL SECTION, ELSET=ELEM_778, COMPOSITE, ORIENTATION=ORI_778
1.20301569, 3, CFRP, 0.
** SOURCE_TET=750
*ELSET, ELSET=ELEM_779
779
*ORIENTATION, NAME=ORI_779, SYSTEM=RECTANGULAR
3.12186433, -44.42301471, -198.98246406, 3.21678692, -45.67658490, -198.33473612
3, 0.
*SHELL SECTION, ELSET=ELEM_779, COMPOSITE, ORIENTATION=ORI_779
1.20324969, 3, CFRP, 0.
** SOURCE_TET=1335
*ELSET, ELSET=ELEM_780
780
*ORIENTATION, NAME=ORI_780, SYSTEM=RECTANGULAR
20.22109824, -59.25586291, -187.15864620, 20.66407755, -60.24520567, -186.25036749
3, 0.
*SHELL SECTION, ELSET=ELEM_780, COMPOSITE, ORIENTATION=ORI_780
1.20266998, 3, CFRP, 0.
** SOURCE_TET=665
*ELSET, ELSET=ELEM_781
781
*ORIENTATION, NAME=ORI_781, SYSTEM=RECTANGULAR
31.04434690, -58.49701163, -183.97854286, 31.58547577, -59.39374735, -183.02825628
3, 0.
*SHELL SECTION, ELSET=ELEM_781, COMPOSITE, ORIENTATION=ORI_781
1.20257354, 3, CFRP, 0.
** SOURCE_TET=1851
*ELSET, ELSET=ELEM_782
782
*ORIENTATION, NAME=ORI_782, SYSTEM=RECTANGULAR
36.67402261, -49.90862082, -187.73854325, 37.40031461, -50.73662394, -186.85146334
3, 0.
*SHELL SECTION, ELSET=ELEM_782, COMPOSITE, ORIENTATION=ORI_782
1.20273173, 3, CFRP, 0.
** SOURCE_TET=1608
*ELSET, ELSET=ELEM_783
783
*ORIENTATION, NAME=ORI_783, SYSTEM=RECTANGULAR
0.11869153, -58.82247720, -190.29810762, 0.13833990, -59.94773362, -189.44171289
3, 0.
*SHELL SECTION, ELSET=ELEM_783, COMPOSITE, ORIENTATION=ORI_783
1.20280659, 3, CFRP, 0.
** SOURCE_TET=2113
*ELSET, ELSET=ELEM_784
784
*ORIENTATION, NAME=ORI_784, SYSTEM=RECTANGULAR
3.66666492, -65.32721591, -184.92758094, 3.81256098, -66.38148753, -183.99633140
3, 0.
*SHELL SECTION, ELSET=ELEM_784, COMPOSITE, ORIENTATION=ORI_784
1.20256412, 3, CFRP, 0.
** SOURCE_TET=2170
*ELSET, ELSET=ELEM_785
785
*ORIENTATION, NAME=ORI_785, SYSTEM=RECTANGULAR
14.23891715, -66.12584224, -182.82974736, 14.50248504, -67.12804001, -181.86739004
3, 0.
*SHELL SECTION, ELSET=ELEM_785, COMPOSITE, ORIENTATION=ORI_785
1.20250416, 3, CFRP, 0.
** SOURCE_TET=1896
*ELSET, ELSET=ELEM_786
786
*ORIENTATION, NAME=ORI_786, SYSTEM=RECTANGULAR
-10.30039011, -57.25130985, -190.67355958, -10.43543806, -58.38355748, -189.83703263
3, 0.
*SHELL SECTION, ELSET=ELEM_786, COMPOSITE, ORIENTATION=ORI_786
1.20281804, 3, CFRP, 0.
** SOURCE_TET=1274
*ELSET, ELSET=ELEM_787
787
*ORIENTATION, NAME=ORI_787, SYSTEM=RECTANGULAR
-12.15709816, -50.03872606, -195.23220083, -12.40835797, -51.20280742, -194.46945375
3, 0.
*SHELL SECTION, ELSET=ELEM_787, COMPOSITE, ORIENTATION=ORI_787
1.20306158, 3, CFRP, 0.
** SOURCE_TET=1215
*ELSET, ELSET=ELEM_788
788
*ORIENTATION, NAME=ORI_788, SYSTEM=RECTANGULAR
-5.13232208, -44.04216247, -199.16348142, -5.21327078, -45.30210118, -198.52629876
3, 0.
*SHELL SECTION, ELSET=ELEM_788, COMPOSITE, ORIENTATION=ORI_788
1.20325196, 3, CFRP, 0.
** SOURCE_TET=1391
*ELSET, ELSET=ELEM_789
789
*ORIENTATION, NAME=ORI_789, SYSTEM=RECTANGULAR
-17.74661838, -63.15834286, -184.50206174, -17.94097800, -64.19122922, -183.55582176
3, 0.
*SHELL SECTION, ELSET=ELEM_789, COMPOSITE, ORIENTATION=ORI_789
1.20262933, 3, CFRP, 0.
** SOURCE_TET=756
*ELSET, ELSET=ELEM_790
790
*ORIENTATION, NAME=ORI_790, SYSTEM=RECTANGULAR
-12.75533490, -72.09178598, -176.85026133, -12.84529807, -73.02816640, -175.79427917
3, 0.
*SHELL SECTION, ELSET=ELEM_790, COMPOSITE, ORIENTATION=ORI_790
1.20229113, 3, CFRP, 0.
** SOURCE_TET=2107
*ELSET, ELSET=ELEM_791
791
*ORIENTATION, NAME=ORI_791, SYSTEM=RECTANGULAR
-1.72235893, -72.73661843, -177.64708006, -1.70593946, -73.68588621, -176.59892879
3, 0.
*SHELL SECTION, ELSET=ELEM_791, COMPOSITE, ORIENTATION=ORI_791
1.20231044, 3, CFRP, 0.
** SOURCE_TET=832
*ELSET, ELSET=ELEM_792
792
*ORIENTATION, NAME=ORI_792, SYSTEM=RECTANGULAR
-28.65186536, -60.40054261, -183.37110533, -29.04587043, -61.36404340, -182.41380379
3, 0.
*SHELL SECTION, ELSET=ELEM_792, COMPOSITE, ORIENTATION=ORI_792
1.20260513, 3, CFRP, 0.
** SOURCE_TET=722
*ELSET, ELSET=ELEM_793
793
*ORIENTATION, NAME=ORI_793, SYSTEM=RECTANGULAR
-32.31112097, -50.94244950, -188.93504587, -32.83408019, -51.93015132, -188.06846710
3, 0.
*SHELL SECTION, ELSET=ELEM_793, COMPOSITE, ORIENTATION=ORI_793
1.20277452, 3, CFRP, 0.
** SOURCE_TET=1591
*ELSET, ELSET=ELEM_794
794
*ORIENTATION, NAME=ORI_794, SYSTEM=RECTANGULAR
-27.14290078, -45.25834479, -194.40508991, -27.71592686, -46.28468190, -193.61878639
3, 0.
*SHELL SECTION, ELSET=ELEM_794, COMPOSITE, ORIENTATION=ORI_794
1.20304418, 3, CFRP, 0.
** SOURCE_TET=1888
*ELSET, ELSET=ELEM_795
795
*ORIENTATION, NAME=ORI_795, SYSTEM=RECTANGULAR
-19.09671516, -45.78981778, -196.40691115, -19.49284889, -46.93651694, -195.68016560
3, 0.
*SHELL SECTION, ELSET=ELEM_795, COMPOSITE, ORIENTATION=ORI_795
1.20310414, 3, CFRP, 0.
** SOURCE_TET=2167
*ELSET, ELSET=ELEM_796
796
*ORIENTATION, NAME=ORI_796, SYSTEM=RECTANGULAR
35.64694568, -65.03732134, -176.11567729, 36.14949678, -65.83449199, -175.06118151
3, 0.
*SHELL SECTION, ELSET=ELEM_796, COMPOSITE, ORIENTATION=ORI_796
1.20235372, 3, CFRP, 0.
** SOURCE_TET=2195
*ELSET, ELSET=ELEM_797
797
*ORIENTATION, NAME=ORI_797, SYSTEM=RECTANGULAR
28.16771517, -73.75913202, -170.10475768, 28.53535086, -74.51196824, -168.96542384
3, 0.
*SHELL SECTION, ELSET=ELEM_797, COMPOSITE, ORIENTATION=ORI_797
1.20204401, 3, CFRP, 0.
** SOURCE_TET=2166
*ELSET, ELSET=ELEM_798
798
*ORIENTATION, NAME=ORI_798, SYSTEM=RECTANGULAR
17.56705585, -74.08802854, -173.65459197, 17.81679231, -74.93461020, -172.54963441
3, 0.
*SHELL SECTION, ELSET=ELEM_798, COMPOSITE, ORIENTATION=ORI_798
1.20225835, 3, CFRP, 0.
** SOURCE_TET=753
*ELSET, ELSET=ELEM_799
799
*ORIENTATION, NAME=ORI_799, SYSTEM=RECTANGULAR
-37.89651649, -65.39694802, -174.01265208, -38.26284154, -66.20125176, -172.90861338
3, 0.
*SHELL SECTION, ELSET=ELEM_799, COMPOSITE, ORIENTATION=ORI_799
1.20225215, 3, CFRP, 0.
** SOURCE_TET=1758
*ELSET, ELSET=ELEM_800
800
*ORIENTATION, NAME=ORI_800, SYSTEM=RECTANGULAR
-19.11615254, -78.39227174, -167.53434414, -19.22496156, -79.20478628, -166.38196368
3, 0.
*SHELL SECTION, ELSET=ELEM_800, COMPOSITE, ORIENTATION=ORI_800
1.20205653, 3, CFRP, 0.
** SOURCE_TET=204
*ELSET, ELSET=ELEM_801
801
*ORIENTATION, NAME=ORI_801, SYSTEM=RECTANGULAR
-33.32516387, -74.47920529, -165.79681037, -33.57539483, -75.22128682, -164.61922833
3, 0.
*SHELL SECTION, ELSET=ELEM_801, COMPOSITE, ORIENTATION=ORI_801
1.20194066, 3, CFRP, 0.
** SOURCE_TET=1141
*ELSET, ELSET=ELEM_802
802
*ORIENTATION, NAME=ORI_802, SYSTEM=RECTANGULAR
-42.63901233, -47.12004343, -186.44077284, -43.31424031, -47.96125484, -185.52620708
3, 0.
*SHELL SECTION, ELSET=ELEM_802, COMPOSITE, ORIENTATION=ORI_802
1.20265698, 3, CFRP, 0.
** SOURCE_TET=1289
*ELSET, ELSET=ELEM_803
803
*ORIENTATION, NAME=ORI_803, SYSTEM=RECTANGULAR
-49.24946454, -51.73000215, -179.08337968, -49.86924898, -52.48393814, -178.05993072
3, 0.
*SHELL SECTION, ELSET=ELEM_803, COMPOSITE, ORIENTATION=ORI_803
1.20244503, 3, CFRP, 0.
** SOURCE_TET=2341
*ELSET, ELSET=ELEM_804
804
*ORIENTATION, NAME=ORI_804, SYSTEM=RECTANGULAR
-48.14324058, -60.55557552, -172.17851569, -48.64036231, -61.28951576, -171.07660748
3, 0.
*SHELL SECTION, ELSET=ELEM_804, COMPOSITE, ORIENTATION=ORI_804
1.20213044, 3, CFRP, 0.
** SOURCE_TET=940
*ELSET, ELSET=ELEM_805
805
*ORIENTATION, NAME=ORI_805, SYSTEM=RECTANGULAR
-45.63975285, -37.23438490, -190.09462865, -46.48989256, -37.98784588, -189.25227539
3, 0.
*SHELL SECTION, ELSET=ELEM_805, COMPOSITE, ORIENTATION=ORI_805
1.20288873, 3, CFRP, 0.
** SOURCE_TET=1243
*ELSET, ELSET=ELEM_806
806
*ORIENTATION, NAME=ORI_806, SYSTEM=RECTANGULAR
-39.68297388, -32.03572597, -195.45968281, -40.58849737, -32.82205172, -194.71020364
3, 0.
*SHELL SECTION, ELSET=ELEM_806, COMPOSITE, ORIENTATION=ORI_806
1.20307636, 3, CFRP, 0.
** SOURCE_TET=1868
*ELSET, ELSET=ELEM_807
807
*ORIENTATION, NAME=ORI_807, SYSTEM=RECTANGULAR
-31.51243312, -36.17598962, -197.27033198, -32.26024396, -37.16505268, -196.59023404
3, 0.
*SHELL SECTION, ELSET=ELEM_807, COMPOSITE, ORIENTATION=ORI_807
1.20315373, 3, CFRP, 0.
** SOURCE_TET=765
*ELSET, ELSET=ELEM_808
808
*ORIENTATION, NAME=ORI_808, SYSTEM=RECTANGULAR
-54.79677486, -32.45880710, -186.32464374, -55.69454624, -33.05582860, -185.40945421
3, 0.
*SHELL SECTION, ELSET=ELEM_808, COMPOSITE, ORIENTATION=ORI_808
1.20265532, 3, CFRP, 0.
** SOURCE_TET=1527
*ELSET, ELSET=ELEM_809
809
*ORIENTATION, NAME=ORI_809, SYSTEM=RECTANGULAR
-61.06533013, -37.66674065, -178.73510088, -61.86041532, -38.22202641, -177.70578205
3, 0.
*SHELL SECTION, ELSET=ELEM_809, COMPOSITE, ORIENTATION=ORI_809
1.20243764, 3, CFRP, 0.
** SOURCE_TET=870
*ELSET, ELSET=ELEM_810
810
*ORIENTATION, NAME=ORI_810, SYSTEM=RECTANGULAR
-58.52732480, -47.04695379, -175.15666810, -59.21081089, -47.67788721, -174.09141237
3, 0.
*SHELL SECTION, ELSET=ELEM_810, COMPOSITE, ORIENTATION=ORI_810
1.20225680, 3, CFRP, 0.
** SOURCE_TET=829
*ELSET, ELSET=ELEM_811
811
*ORIENTATION, NAME=ORI_811, SYSTEM=RECTANGULAR
-56.70967194, -22.01587491, -188.59785169, -57.73083003, -22.45289224, -187.72249347
3, 0.
*SHELL SECTION, ELSET=ELEM_811, COMPOSITE, ORIENTATION=ORI_811
1.20281303, 3, CFRP, 0.
** SOURCE_TET=510
*ELSET, ELSET=ELEM_812
812
*ORIENTATION, NAME=ORI_812, SYSTEM=RECTANGULAR
-49.50523364, -16.52096345, -194.62388837, -50.62637649, -16.94234649, -193.87190762
3, 0.
*SHELL SECTION, ELSET=ELEM_812, COMPOSITE, ORIENTATION=ORI_812
1.20301938, 3, CFRP, 0.
** SOURCE_TET=1075
*ELSET, ELSET=ELEM_813
813
*ORIENTATION, NAME=ORI_813, SYSTEM=RECTANGULAR
-41.63191885, -21.78527406, -197.70365252, -42.72054612, -22.38508505, -197.02902859
3, 0.
*SHELL SECTION, ELSET=ELEM_813, COMPOSITE, ORIENTATION=ORI_813
1.20323825, 3, CFRP, 0.
** SOURCE_TET=890
*ELSET, ELSET=ELEM_814
814
*ORIENTATION, NAME=ORI_814, SYSTEM=RECTANGULAR
-64.85389973, -16.47569039, -183.44739360, -65.84545297, -16.78705238, -182.48829200
3, 0.
*SHELL SECTION, ELSET=ELEM_814, COMPOSITE, ORIENTATION=ORI_814
1.20253897, 3, CFRP, 0.
** SOURCE_TET=1064
*ELSET, ELSET=ELEM_815
815
*ORIENTATION, NAME=ORI_815, SYSTEM=RECTANGULAR
-70.25470310, -31.87781947, -172.38621357, -71.02438929, -32.30115709, -171.27789573
3, 0.
*SHELL SECTION, ELSET=ELEM_815, COMPOSITE, ORIENTATION=ORI_815
1.20214868, 3, CFRP, 0.
** SOURCE_TET=1520
*ELSET, ELSET=ELEM_816
816
*ORIENTATION, NAME=ORI_816, SYSTEM=RECTANGULAR
-72.12227440, -21.14822311, -174.80384632, -72.97769738, -21.45428510, -173.72006702
3, 0.
*SHELL SECTION, ELSET=ELEM_816, COMPOSITE, ORIENTATION=ORI_816
1.20230424, 3, CFRP, 0.
** SOURCE_TET=822
*ELSET, ELSET=ELEM_817
817
*ORIENTATION, NAME=ORI_817, SYSTEM=RECTANGULAR
-50.29586743, -6.38276954, -195.60565143, -51.48101549, -6.63773965, -194.87735593
3, 0.
*SHELL SECTION, ELSET=ELEM_817, COMPOSITE, ORIENTATION=ORI_817
1.20305610, 3, CFRP, 0.
** SOURCE_TET=1354
*ELSET, ELSET=ELEM_818
818
*ORIENTATION, NAME=ORI_818, SYSTEM=RECTANGULAR
-57.87656479, -1.43542952, -190.93175901, -59.01818939, -1.50797419, -190.10023597
3, 0.
*SHELL SECTION, ELSET=ELEM_818, COMPOSITE, ORIENTATION=ORI_818
1.20283377, 3, CFRP, 0.
** SOURCE_TET=879
*ELSET, ELSET=ELEM_819
819
*ORIENTATION, NAME=ORI_819, SYSTEM=RECTANGULAR
-65.21968310, -6.02565655, -184.80217807, -66.26481909, -6.15505021, -183.85827762
3, 0.
*SHELL SECTION, ELSET=ELEM_819, COMPOSITE, ORIENTATION=ORI_819
1.20264339, 3, CFRP, 0.
** SOURCE_TET=1845
*ELSET, ELSET=ELEM_820
820
*ORIENTATION, NAME=ORI_820, SYSTEM=RECTANGULAR
47.14122898, -62.64218707, -170.64811722, 47.72287907, -63.26816412, -169.52124726
3, 0.
*SHELL SECTION, ELSET=ELEM_820, COMPOSITE, ORIENTATION=ORI_820
1.20213330, 3, CFRP, 0.
** SOURCE_TET=484
*ELSET, ELSET=ELEM_821
821
*ORIENTATION, NAME=ORI_821, SYSTEM=RECTANGULAR
53.31298750, -52.48123746, -174.79944262, 53.99679197, -53.07401132, -173.71269030
3, 0.
*SHELL SECTION, ELSET=ELEM_821, COMPOSITE, ORIENTATION=ORI_821
1.20224059, 3, CFRP, 0.
** SOURCE_TET=2000
*ELSET, ELSET=ELEM_822
822
*ORIENTATION, NAME=ORI_822, SYSTEM=RECTANGULAR
47.45119506, -46.29077365, -184.02398180, 48.22358602, -46.96935228, -183.05292916
3, 0.
*SHELL SECTION, ELSET=ELEM_822, COMPOSITE, ORIENTATION=ORI_822
1.20261800, 3, CFRP, 0.
** SOURCE_TET=1054
*ELSET, ELSET=ELEM_823
823
*ORIENTATION, NAME=ORI_823, SYSTEM=RECTANGULAR
-43.09777110, -1.58199014, -199.72584561, -44.36382005, -1.65673033, -199.10011886
3, 0.
*SHELL SECTION, ELSET=ELEM_823, COMPOSITE, ORIENTATION=ORI_823
1.20334303, 3, CFRP, 0.
** SOURCE_TET=1373
*ELSET, ELSET=ELEM_824
824
*ORIENTATION, NAME=ORI_824, SYSTEM=RECTANGULAR
-34.27768708, -18.78016429, -201.56941688, -35.40720536, -19.41183472, -200.99917051
3, 0.
*SHELL SECTION, ELSET=ELEM_824, COMPOSITE, ORIENTATION=ORI_824
1.20341158, 3, CFRP, 0.
** SOURCE_TET=1762
*ELSET, ELSET=ELEM_825
825
*ORIENTATION, NAME=ORI_825, SYSTEM=RECTANGULAR
-36.72361887, -5.41658700, -202.54300608, -38.01200905, -5.59324919, -201.98727124
3, 0.
*SHELL SECTION, ELSET=ELEM_825, COMPOSITE, ORIENTATION=ORI_825
1.20347607, 3, CFRP, 0.
** SOURCE_TET=1300
*ELSET, ELSET=ELEM_826
826
*ORIENTATION, NAME=ORI_826, SYSTEM=RECTANGULAR
-33.37162578, -12.53421877, -203.08133249, -34.56796793, -13.04251713, -202.52419855
3, 0.
*SHELL SECTION, ELSET=ELEM_826, COMPOSITE, ORIENTATION=ORI_826
1.20348346, 3, CFRP, 0.
** SOURCE_TET=1033
*ELSET, ELSET=ELEM_827
827
*ORIENTATION, NAME=ORI_827, SYSTEM=RECTANGULAR
-57.41405870, 8.66605005, -190.77500768, -58.55517803, 8.74323092, -189.94320854
3, 0.
*SHELL SECTION, ELSET=ELEM_827, COMPOSITE, ORIENTATION=ORI_827
1.20282996, 3, CFRP, 0.
** SOURCE_TET=1362
*ELSET, ELSET=ELEM_828
828
*ORIENTATION, NAME=ORI_828, SYSTEM=RECTANGULAR
-50.16345731, 13.49274853, -194.87382938, -51.33207737, 13.76908834, -194.12685985
3, 0.
*SHELL SECTION, ELSET=ELEM_828, COMPOSITE, ORIENTATION=ORI_828
1.20301259, 3, CFRP, 0.
** SOURCE_TET=578
*ELSET, ELSET=ELEM_829
829
*ORIENTATION, NAME=ORI_829, SYSTEM=RECTANGULAR
-43.36216949, 8.27381310, -199.19897594, -44.61623231, 8.42127893, -198.56212410
3, 0.
*SHELL SECTION, ELSET=ELEM_829, COMPOSITE, ORIENTATION=ORI_829
1.20332062, 3, CFRP, 0.
** SOURCE_TET=895
*ELSET, ELSET=ELEM_830
830
*ORIENTATION, NAME=ORI_830, SYSTEM=RECTANGULAR
-64.45814646, 14.39682381, -184.24329032, -65.48653030, 14.57333516, -183.28868547
3, 0.
*SHELL SECTION, ELSET=ELEM_830, COMPOSITE, ORIENTATION=ORI_830
1.20255721, 3, CFRP, 0.
** SOURCE_TET=1661
*ELSET, ELSET=ELEM_831
831
*ORIENTATION, NAME=ORI_831, SYSTEM=RECTANGULAR
-71.33823284, 9.84764970, -178.58152518, -72.31551253, 9.94645808, -177.56409641
3, 0.
*SHELL SECTION, ELSET=ELEM_831, COMPOSITE, ORIENTATION=ORI_831
1.20239735, 3, CFRP, 0.
** SOURCE_TET=1463
*ELSET, ELSET=ELEM_832
832
*ORIENTATION, NAME=ORI_832, SYSTEM=RECTANGULAR
-71.64577779, -0.46732621, -178.99219252, -72.62263052, -0.53389223, -177.97173786
3, 0.
*SHELL SECTION, ELSET=ELEM_832, COMPOSITE, ORIENTATION=ORI_832
1.20236003, 3, CFRP, 0.
** SOURCE_TET=932
*ELSET, ELSET=ELEM_833
833
*ORIENTATION, NAME=ORI_833, SYSTEM=RECTANGULAR
-62.91410991, 25.19852233, -182.60124749, -63.89892241, 25.49272042, -181.62986094
3, 0.
*SHELL SECTION, ELSET=ELEM_833, COMPOSITE, ORIENTATION=ORI_833
1.20251131, 3, CFRP, 0.
** SOURCE_TET=1241
*ELSET, ELSET=ELEM_834
834
*ORIENTATION, NAME=ORI_834, SYSTEM=RECTANGULAR
-54.24631550, 29.96050600, -187.70124328, -55.23163635, 30.44800733, -186.81158869
3, 0.
*SHELL SECTION, ELSET=ELEM_834, COMPOSITE, ORIENTATION=ORI_834
1.20268583, 3, CFRP, 0.
** SOURCE_TET=1182
*ELSET, ELSET=ELEM_835
835
*ORIENTATION, NAME=ORI_835, SYSTEM=RECTANGULAR
-48.47446127, 24.04290310, -193.49379491, -49.56670219, 24.47742911, -192.70753990
3, 0.
*SHELL SECTION, ELSET=ELEM_835, COMPOSITE, ORIENTATION=ORI_835
1.20296276, 3, CFRP, 0.
** SOURCE_TET=942
*ELSET, ELSET=ELEM_836
836
*ORIENTATION, NAME=ORI_836, SYSTEM=RECTANGULAR
-68.88619761, 31.09104398, -174.42590912, -69.79032088, 31.27994804, -173.35498598
3, 0.
*SHELL SECTION, ELSET=ELEM_836, COMPOSITE, ORIENTATION=ORI_836
1.20256901, 3, CFRP, 0.
** SOURCE_TET=1555
*ELSET, ELSET=ELEM_837
837
*ORIENTATION, NAME=ORI_837, SYSTEM=RECTANGULAR
-76.99789710, 24.93682706, -167.52091211, -77.77333627, 25.14791469, -166.35723858
3, 0.
*SHELL SECTION, ELSET=ELEM_837, COMPOSITE, ORIENTATION=ORI_837
1.20199394, 3, CFRP, 0.
** SOURCE_TET=1897
*ELSET, ELSET=ELEM_838
838
*ORIENTATION, NAME=ORI_838, SYSTEM=RECTANGULAR
-77.84936341, 14.56434853, -170.10891973, -78.68242964, 14.64705667, -168.96911272
3, 0.
*SHELL SECTION, ELSET=ELEM_838, COMPOSITE, ORIENTATION=ORI_838
1.20202601, 3, CFRP, 0.
** SOURCE_TET=1942
*ELSET, ELSET=ELEM_839
839
*ORIENTATION, NAME=ORI_839, SYSTEM=RECTANGULAR
-51.10963441, 40.50034563, -185.03929673, -51.99445969, 41.08140355, -184.10150362
3, 0.
*SHELL SECTION, ELSET=ELEM_839, COMPOSITE, ORIENTATION=ORI_839
1.20260441, 3, CFRP, 0.
** SOURCE_TET=1436
*ELSET, ELSET=ELEM_840
840
*ORIENTATION, NAME=ORI_840, SYSTEM=RECTANGULAR
-56.62534423, 45.79165545, -177.63474484, -57.42695989, 46.31998616, -176.59634271
3, 0.
*SHELL SECTION, ELSET=ELEM_840, COMPOSITE, ORIENTATION=ORI_840
1.20239568, 3, CFRP, 0.
** SOURCE_TET=1612
*ELSET, ELSET=ELEM_841
841
*ORIENTATION, NAME=ORI_841, SYSTEM=RECTANGULAR
-65.68102230, 41.16758943, -172.15019033, -66.54212671, 41.41821354, -171.05671570
3, 0.
*SHELL SECTION, ELSET=ELEM_841, COMPOSITE, ORIENTATION=ORI_841
1.20251060, 3, CFRP, 0.
** SOURCE_TET=1636
*ELSET, ELSET=ELEM_842
842
*ORIENTATION, NAME=ORI_842, SYSTEM=RECTANGULAR
-41.65889691, 44.33932551, -188.62339526, -42.48170867, 45.09302402, -187.75453431
3, 0.
*SHELL SECTION, ELSET=ELEM_842, COMPOSITE, ORIENTATION=ORI_842
1.20281935, 3, CFRP, 0.
** SOURCE_TET=1476
*ELSET, ELSET=ELEM_843
843
*ORIENTATION, NAME=ORI_843, SYSTEM=RECTANGULAR
-37.53074970, 37.88388000, -194.04603295, -38.41536499, 38.66617834, -193.26791658
3, 0.
*SHELL SECTION, ELSET=ELEM_843, COMPOSITE, ORIENTATION=ORI_843
1.20300102, 3, CFRP, 0.
** SOURCE_TET=1650
*ELSET, ELSET=ELEM_844
844
*ORIENTATION, NAME=ORI_844, SYSTEM=RECTANGULAR
-41.21665345, 28.09444160, -196.20251260, -42.26471791, 28.70856885, -195.47835197
3, 0.
*SHELL SECTION, ELSET=ELEM_844, COMPOSITE, ORIENTATION=ORI_844
1.20316005, 3, CFRP, 0.
** SOURCE_TET=2189
*ELSET, ELSET=ELEM_845
845
*ORIENTATION, NAME=ORI_845, SYSTEM=RECTANGULAR
-37.38240764, 54.09765570, -184.50319646, -38.05612598, 54.90772449, -183.55985552
3, 0.
*SHELL SECTION, ELSET=ELEM_845, COMPOSITE, ORIENTATION=ORI_845
1.20259190, 3, CFRP, 0.
** SOURCE_TET=1287
*ELSET, ELSET=ELEM_846
846
*ORIENTATION, NAME=ORI_846, SYSTEM=RECTANGULAR
-44.18222984, 60.41624716, -174.89735953, -44.76274056, 61.10401407, -173.80649566
3, 0.
*SHELL SECTION, ELSET=ELEM_846, COMPOSITE, ORIENTATION=ORI_846
1.20217657, 3, CFRP, 0.
** SOURCE_TET=991
*ELSET, ELSET=ELEM_847
847
*ORIENTATION, NAME=ORI_847, SYSTEM=RECTANGULAR
-53.96430149, 55.96123493, -171.63483480, -54.63657723, 56.53354188, -170.53006781
3, 0.
*SHELL SECTION, ELSET=ELEM_847, COMPOSITE, ORIENTATION=ORI_847
1.20212173, 3, CFRP, 0.
** SOURCE_TET=876
*ELSET, ELSET=ELEM_848
848
*ORIENTATION, NAME=ORI_848, SYSTEM=RECTANGULAR
-26.86219213, 57.21639041, -186.59404623, -27.39376241, 58.16527986, -185.69014255
3, 0.
*SHELL SECTION, ELSET=ELEM_848, COMPOSITE, ORIENTATION=ORI_848
1.20274329, 3, CFRP, 0.
** SOURCE_TET=490
*ELSET, ELSET=ELEM_849
849
*ORIENTATION, NAME=ORI_849, SYSTEM=RECTANGULAR
-20.50232900, 50.58671938, -193.00453186, -21.02893241, 51.63558858, -192.21550573
3, 0.
*SHELL SECTION, ELSET=ELEM_849, COMPOSITE, ORIENTATION=ORI_849
1.20295572, 3, CFRP, 0.
** SOURCE_TET=1055
*ELSET, ELSET=ELEM_850
850
*ORIENTATION, NAME=ORI_850, SYSTEM=RECTANGULAR
-23.56703403, 43.04612242, -196.67307392, -24.19829637, 44.07464081, -195.93574238
3, 0.
*SHELL SECTION, ELSET=ELEM_850, COMPOSITE, ORIENTATION=ORI_850
1.20308447, 3, CFRP, 0.
** SOURCE_TET=1319
*ELSET, ELSET=ELEM_851
851
*ORIENTATION, NAME=ORI_851, SYSTEM=RECTANGULAR
-30.50522361, 38.74689651, -196.56882729, -31.33866004, 39.62283476, -195.83526346
3, 0.
*SHELL SECTION, ELSET=ELEM_851, COMPOSITE, ORIENTATION=ORI_851
1.20309675, 3, CFRP, 0.
** SOURCE_TET=1735
*ELSET, ELSET=ELEM_852
852
*ORIENTATION, NAME=ORI_852, SYSTEM=RECTANGULAR
-21.98313225, 66.25469320, -180.64811425, -22.38471762, 67.17298041, -179.65037791
3, 0.
*SHELL SECTION, ELSET=ELEM_852, COMPOSITE, ORIENTATION=ORI_852
1.20244884, 3, CFRP, 0.
** SOURCE_TET=1125
*ELSET, ELSET=ELEM_853
853
*ORIENTATION, NAME=ORI_853, SYSTEM=RECTANGULAR
-38.82261841, 69.72204813, -168.64999530, -39.30262780, 70.40140129, -167.50628630
3, 0.
*SHELL SECTION, ELSET=ELEM_853, COMPOSITE, ORIENTATION=ORI_853
1.20202029, 3, CFRP, 0.
** SOURCE_TET=2240
*ELSET, ELSET=ELEM_854
854
*ORIENTATION, NAME=ORI_854, SYSTEM=RECTANGULAR
-27.18422226, 72.44179842, -172.29178048, -27.56872652, 73.23621239, -171.18676332
3, 0.
*SHELL SECTION, ELSET=ELEM_854, COMPOSITE, ORIENTATION=ORI_854
1.20222616, 3, CFRP, 0.
** SOURCE_TET=1018
*ELSET, ELSET=ELEM_855
855
*ORIENTATION, NAME=ORI_855, SYSTEM=RECTANGULAR
-9.71392697, 52.48883339, -193.89370410, -9.98975948, 53.64218144, -193.12318174
3, 0.
*SHELL SECTION, ELSET=ELEM_855, COMPOSITE, ORIENTATION=ORI_855
1.20305145, 3, CFRP, 0.
** SOURCE_TET=672
*ELSET, ELSET=ELEM_856
856
*ORIENTATION, NAME=ORI_856, SYSTEM=RECTANGULAR
-5.10832735, 60.96097419, -188.31416125, -5.28876768, 62.05411853, -187.43525468
3, 0.
*SHELL SECTION, ELSET=ELEM_856, COMPOSITE, ORIENTATION=ORI_856
1.20275116, 3, CFRP, 0.
** SOURCE_TET=791
*ELSET, ELSET=ELEM_857
857
*ORIENTATION, NAME=ORI_857, SYSTEM=RECTANGULAR
-11.06351231, 68.10788578, -181.45158113, -11.29277530, 69.09107917, -180.46124318
3, 0.
*SHELL SECTION, ELSET=ELEM_857, COMPOSITE, ORIENTATION=ORI_857
1.20254552, 3, CFRP, 0.
** SOURCE_TET=2051
*ELSET, ELSET=ELEM_858
858
*ORIENTATION, NAME=ORI_858, SYSTEM=RECTANGULAR
-82.01630441, 30.06141456, -156.77078930, -82.64185978, 30.23591401, -155.51451289
3, 0.
*SHELL SECTION, ELSET=ELEM_858, COMPOSITE, ORIENTATION=ORI_858
1.20174587, 3, CFRP, 0.
** SOURCE_TET=1884
*ELSET, ELSET=ELEM_859
859
*ORIENTATION, NAME=ORI_859, SYSTEM=RECTANGULAR
-77.84667294, 42.34413313, -154.20561706, -78.49543459, 42.40564687, -152.95049779
3, 0.
*SHELL SECTION, ELSET=ELEM_859, COMPOSITE, ORIENTATION=ORI_859
1.20209336, 3, CFRP, 0.
** SOURCE_TET=2047
*ELSET, ELSET=ELEM_860
860
*ORIENTATION, NAME=ORI_860, SYSTEM=RECTANGULAR
-69.63708301, 47.28870675, -162.67677767, -70.37855199, 47.46871848, -161.48605539
3, 0.
*SHELL SECTION, ELSET=ELEM_860, COMPOSITE, ORIENTATION=ORI_860
1.20228040, 3, CFRP, 0.
** SOURCE_TET=1615
*ELSET, ELSET=ELEM_861
861
*ORIENTATION, NAME=ORI_861, SYSTEM=RECTANGULAR
-3.98990280, 45.83899871, -198.27651973, -4.18557224, 47.07001865, -197.60846031
3, 0.
*SHELL SECTION, ELSET=ELEM_861, COMPOSITE, ORIENTATION=ORI_861
1.20322073, 3, CFRP, 0.
** SOURCE_TET=1703
*ELSET, ELSET=ELEM_862
862
*ORIENTATION, NAME=ORI_862, SYSTEM=RECTANGULAR
-6.87714075, 40.00837764, -201.12586487, -7.15297991, 41.24651484, -200.50062169
3, 0.
*SHELL SECTION, ELSET=ELEM_862, COMPOSITE, ORIENTATION=ORI_862
1.20334005, 3, CFRP, 0.
** SOURCE_TET=2381
*ELSET, ELSET=ELEM_863
863
*ORIENTATION, NAME=ORI_863, SYSTEM=RECTANGULAR
-17.93179713, 37.77689031, -200.55280082, -18.54315478, 38.90012148, -199.94898498
3, 0.
*SHELL SECTION, ELSET=ELEM_863, COMPOSITE, ORIENTATION=ORI_863
1.20333230, 3, CFRP, 0.
** SOURCE_TET=1819
*ELSET, ELSET=ELEM_864
864
*ORIENTATION, NAME=ORI_864, SYSTEM=RECTANGULAR
-12.36752959, 37.30905221, -201.74428269, -12.87735444, 38.49268840, -201.16197350
3, 0.
*SHELL SECTION, ELSET=ELEM_864, COMPOSITE, ORIENTATION=ORI_864
1.20338905, 3, CFRP, 0.
** SOURCE_TET=993
*ELSET, ELSET=ELEM_865
865
*ORIENTATION, NAME=ORI_865, SYSTEM=RECTANGULAR
5.77132518, 61.16720564, -188.05386020, 5.81914247, 62.26856948, -187.16802093
3, 0.
*SHELL SECTION, ELSET=ELEM_865, COMPOSITE, ORIENTATION=ORI_865
1.20279586, 3, CFRP, 0.
** SOURCE_TET=1765
*ELSET, ELSET=ELEM_866
866
*ORIENTATION, NAME=ORI_866, SYSTEM=RECTANGULAR
11.65431018, 53.14960436, -193.19430271, 11.82078806, 54.31723007, -192.41395963
3, 0.
*SHELL SECTION, ELSET=ELEM_866, COMPOSITE, ORIENTATION=ORI_866
1.20296776, 3, CFRP, 0.
** SOURCE_TET=1641
*ELSET, ELSET=ELEM_867
867
*ORIENTATION, NAME=ORI_867, SYSTEM=RECTANGULAR
6.45361457, 46.33721741, -197.82878624, 6.56088063, 47.57048327, -197.14501046
3, 0.
*SHELL SECTION, ELSET=ELEM_867, COMPOSITE, ORIENTATION=ORI_867
1.20314240, 3, CFRP, 0.
** SOURCE_TET=1820
*ELSET, ELSET=ELEM_868
868
*ORIENTATION, NAME=ORI_868, SYSTEM=RECTANGULAR
11.19527832, 68.45592583, -181.08462909, 11.27300652, 69.46202319, -180.09380800
3, 0.
*SHELL SECTION, ELSET=ELEM_868, COMPOSITE, ORIENTATION=ORI_868
1.20246899, 3, CFRP, 0.
** SOURCE_TET=2136
*ELSET, ELSET=ELEM_869
869
*ORIENTATION, NAME=ORI_869, SYSTEM=RECTANGULAR
4.55928458, 75.73121396, -174.06895082, 4.55018222, 76.62808851, -172.97554642
3, 0.
*SHELL SECTION, ELSET=ELEM_869, COMPOSITE, ORIENTATION=ORI_869
1.20228004, 3, CFRP, 0.
** SOURCE_TET=2048
*ELSET, ELSET=ELEM_870
870
*ORIENTATION, NAME=ORI_870, SYSTEM=RECTANGULAR
-6.77831545, 75.55841953, -174.19810108, -6.94506911, 76.45794274, -173.11965257
3, 0.
*SHELL SECTION, ELSET=ELEM_870, COMPOSITE, ORIENTATION=ORI_870
1.20223129, 3, CFRP, 0.
** SOURCE_TET=1247
*ELSET, ELSET=ELEM_871
871
*ORIENTATION, NAME=ORI_871, SYSTEM=RECTANGULAR
23.04827132, 67.03514849, -179.45838286, 23.31678908, 67.97999871, -178.44095656
3, 0.
*SHELL SECTION, ELSET=ELEM_871, COMPOSITE, ORIENTATION=ORI_871
1.20245850, 3, CFRP, 0.
** SOURCE_TET=635
*ELSET, ELSET=ELEM_872
872
*ORIENTATION, NAME=ORI_872, SYSTEM=RECTANGULAR
30.44305969, 58.14397095, -184.31267053, 30.85980522, 59.13098194, -183.38956031
3, 0.
*SHELL SECTION, ELSET=ELEM_872, COMPOSITE, ORIENTATION=ORI_872
1.20259988, 3, CFRP, 0.
** SOURCE_TET=1057
*ELSET, ELSET=ELEM_873
873
*ORIENTATION, NAME=ORI_873, SYSTEM=RECTANGULAR
24.43929684, 51.63967532, -191.08357942, 24.88976092, 52.68581078, -190.24531770
3, 0.
*SHELL SECTION, ELSET=ELEM_873, COMPOSITE, ORIENTATION=ORI_873
1.20294046, 3, CFRP, 0.
** SOURCE_TET=1326
*ELSET, ELSET=ELEM_874
874
*ORIENTATION, NAME=ORI_874, SYSTEM=RECTANGULAR
29.19568930, 73.51875037, -169.67658714, 29.43259139, 74.31973116, -168.53540039
3, 0.
*SHELL SECTION, ELSET=ELEM_874, COMPOSITE, ORIENTATION=ORI_874
1.20204628, 3, CFRP, 0.
** SOURCE_TET=1296
*ELSET, ELSET=ELEM_875
875
*ORIENTATION, NAME=ORI_875, SYSTEM=RECTANGULAR
22.80397056, 80.98732918, -162.46614806, 22.95342922, 81.72826968, -161.27087852
3, 0.
*SHELL SECTION, ELSET=ELEM_875, COMPOSITE, ORIENTATION=ORI_875
1.20187342, 3, CFRP, 0.
** SOURCE_TET=2022
*ELSET, ELSET=ELEM_876
876
*ORIENTATION, NAME=ORI_876, SYSTEM=RECTANGULAR
10.05698015, 81.74192955, -165.25787263, 10.06424596, 82.52148513, -164.07794030
3, 0.
*SHELL SECTION, ELSET=ELEM_876, COMPOSITE, ORIENTATION=ORI_876
1.20191908, 3, CFRP, 0.
** SOURCE_TET=2156
*ELSET, ELSET=ELEM_877
877
*ORIENTATION, NAME=ORI_877, SYSTEM=RECTANGULAR
-16.97043004, 26.72389945, -204.63924766, -17.71657388, 27.83815925, -204.19014360
3, 0.
*SHELL SECTION, ELSET=ELEM_877, COMPOSITE, ORIENTATION=ORI_877
1.20362008, 3, CFRP, 0.
** SOURCE_TET=2155
*ELSET, ELSET=ELEM_878
878
*ORIENTATION, NAME=ORI_878, SYSTEM=RECTANGULAR
-10.51053030, 27.91315083, -205.20428156, -11.07219340, 29.13904121, -204.77798667
3, 0.
*SHELL SECTION, ELSET=ELEM_878, COMPOSITE, ORIENTATION=ORI_878
1.20362008, 3, CFRP, 0.
** SOURCE_TET=2353
*ELSET, ELSET=ELEM_879
879
*ORIENTATION, NAME=ORI_879, SYSTEM=RECTANGULAR
42.28538149, 55.54897518, -180.67543149, 42.84934254, 56.36384293, -179.66650212
3, 0.
*SHELL SECTION, ELSET=ELEM_879, COMPOSITE, ORIENTATION=ORI_879
1.20250082, 3, CFRP, 0.
** SOURCE_TET=1777
*ELSET, ELSET=ELEM_880
880
*ORIENTATION, NAME=ORI_880, SYSTEM=RECTANGULAR
46.99378511, 61.31289979, -172.32107656, 47.46534449, 62.05779795, -171.21529247
3, 0.
*SHELL SECTION, ELSET=ELEM_880, COMPOSITE, ORIENTATION=ORI_880
1.20215201, 3, CFRP, 0.
** SOURCE_TET=1363
*ELSET, ELSET=ELEM_881
881
*ORIENTATION, NAME=ORI_881, SYSTEM=RECTANGULAR
41.28797567, 70.45067172, -166.16224177, 41.64068362, 71.16210720, -164.99200390
3, 0.
*SHELL SECTION, ELSET=ELEM_881, COMPOSITE, ORIENTATION=ORI_881
1.20200312, 3, CFRP, 0.
** SOURCE_TET=1706
*ELSET, ELSET=ELEM_882
882
*ORIENTATION, NAME=ORI_882, SYSTEM=RECTANGULAR
-76.20852637, -36.42284150, -161.85101364, -76.83688755, -36.79558420, -160.64013581
3, 0.
*SHELL SECTION, ELSET=ELEM_882, COMPOSITE, ORIENTATION=ORI_882
1.20189595, 3, CFRP, 0.
** SOURCE_TET=358
*ELSET, ELSET=ELEM_883
883
*ORIENTATION, NAME=ORI_883, SYSTEM=RECTANGULAR
-71.83424616, -47.65779239, -158.84068939, -72.36179300, -48.09917273, -157.60502045
3, 0.
*SHELL SECTION, ELSET=ELEM_883, COMPOSITE, ORIENTATION=ORI_883
1.20174706, 3, CFRP, 0.
** SOURCE_TET=2131
*ELSET, ELSET=ELEM_884
884
*ORIENTATION, NAME=ORI_884, SYSTEM=RECTANGULAR
-63.33408952, -52.50868370, -165.78202866, -63.88939233, -53.04203070, -164.59578258
3, 0.
*SHELL SECTION, ELSET=ELEM_884, COMPOSITE, ORIENTATION=ORI_884
1.20190454, 3, CFRP, 0.
** SOURCE_TET=1423
*ELSET, ELSET=ELEM_885
885
*ORIENTATION, NAME=ORI_885, SYSTEM=RECTANGULAR
-29.43292793, 25.10962658, -201.88162842, -30.42821340, 25.93640727, -201.31080402
3, 0.
*SHELL SECTION, ELSET=ELEM_885, COMPOSITE, ORIENTATION=ORI_885
1.20342278, 3, CFRP, 0.
** SOURCE_TET=2165
*ELSET, ELSET=ELEM_886
886
*ORIENTATION, NAME=ORI_886, SYSTEM=RECTANGULAR
-27.54769073, 31.68682934, -200.46940353, -28.43591150, 32.60887705, -199.86866074
3, 0.
*SHELL SECTION, ELSET=ELEM_886, COMPOSITE, ORIENTATION=ORI_886
1.20335114, 3, CFRP, 0.
** SOURCE_TET=2630
*ELSET, ELSET=ELEM_887
887
*ORIENTATION, NAME=ORI_887, SYSTEM=RECTANGULAR
-20.94826783, 31.95789202, -202.19988840, -21.74909324, 32.98156661, -201.64242181
3, 0.
*SHELL SECTION, ELSET=ELEM_887, COMPOSITE, ORIENTATION=ORI_887
1.20343471, 3, CFRP, 0.
** SOURCE_TET=1079
*ELSET, ELSET=ELEM_888
888
*ORIENTATION, NAME=ORI_888, SYSTEM=RECTANGULAR
-36.58652589, 13.05623999, -201.69676398, -37.80774645, 13.49105771, -201.13147301
3, 0.
*SHELL SECTION, ELSET=ELEM_888, COMPOSITE, ORIENTATION=ORI_888
1.20340419, 3, CFRP, 0.
** SOURCE_TET=840
*ELSET, ELSET=ELEM_889
889
*ORIENTATION, NAME=ORI_889, SYSTEM=RECTANGULAR
-30.95091598, 9.50651268, -204.34283197, -32.22361306, 9.86460282, -203.84082242
3, 0.
*SHELL SECTION, ELSET=ELEM_889, COMPOSITE, ORIENTATION=ORI_889
1.20362008, 3, CFRP, 0.
** SOURCE_TET=2125
*ELSET, ELSET=ELEM_890
890
*ORIENTATION, NAME=ORI_890, SYSTEM=RECTANGULAR
-36.07268058, 22.38912189, -200.14200943, -37.19122708, 22.99887877, -199.52796524
3, 0.
*SHELL SECTION, ELSET=ELEM_890, COMPOSITE, ORIENTATION=ORI_890
1.20332456, 3, CFRP, 0.
** SOURCE_TET=2223
*ELSET, ELSET=ELEM_891
891
*ORIENTATION, NAME=ORI_891, SYSTEM=RECTANGULAR
0.64677960, -30.05595072, -205.20785094, 0.67775718, -31.39738879, -204.76110237
3, 0.
*SHELL SECTION, ELSET=ELEM_891, COMPOSITE, ORIENTATION=ORI_891
1.20362008, 3, CFRP, 0.
** SOURCE_TET=2477
*ELSET, ELSET=ELEM_892
892
*ORIENTATION, NAME=ORI_892, SYSTEM=RECTANGULAR
-4.45738399, -31.59492703, -204.60995878, -4.58605757, -32.91996818, -204.13277010
3, 0.
*SHELL SECTION, ELSET=ELEM_892, COMPOSITE, ORIENTATION=ORI_892
1.20361996, 3, CFRP, 0.
** SOURCE_TET=1717
*ELSET, ELSET=ELEM_893
893
*ORIENTATION, NAME=ORI_893, SYSTEM=RECTANGULAR
-7.50126337, -36.98355573, -202.29772216, -7.68430642, -38.27056169, -201.74084615
3, 0.
*SHELL SECTION, ELSET=ELEM_893, COMPOSITE, ORIENTATION=ORI_893
1.20349741, 3, CFRP, 0.
** SOURCE_TET=1704
*ELSET, ELSET=ELEM_894
894
*ORIENTATION, NAME=ORI_894, SYSTEM=RECTANGULAR
11.25031756, 38.69528348, -200.99690802, 11.53149818, 39.95250028, -200.41351845
3, 0.
*SHELL SECTION, ELSET=ELEM_894, COMPOSITE, ORIENTATION=ORI_894
1.20339966, 3, CFRP, 0.
** SOURCE_TET=1502
*ELSET, ELSET=ELEM_895
895
*ORIENTATION, NAME=ORI_895, SYSTEM=RECTANGULAR
4.14477676, 33.62395939, -203.62752687, 4.28288846, 34.95150776, -203.16004372
3, 0.
*SHELL SECTION, ELSET=ELEM_895, COMPOSITE, ORIENTATION=ORI_895
1.20353591, 3, CFRP, 0.
** SOURCE_TET=2445
*ELSET, ELSET=ELEM_896
896
*ORIENTATION, NAME=ORI_896, SYSTEM=RECTANGULAR
-3.48322402, 35.38685359, -203.29633231, -3.69004665, 36.68815677, -202.78268416
3, 0.
*SHELL SECTION, ELSET=ELEM_896, COMPOSITE, ORIENTATION=ORI_896
1.20354152, 3, CFRP, 0.
** SOURCE_TET=2220
*ELSET, ELSET=ELEM_897
897
*ORIENTATION, NAME=ORI_897, SYSTEM=RECTANGULAR
50.05826733, 46.51576946, -182.10103253, 50.77009142, 47.29160560, -181.15690078
3, 0.
*SHELL SECTION, ELSET=ELEM_897, COMPOSITE, ORIENTATION=ORI_897
1.20254076, 3, CFRP, 0.
** SOURCE_TET=1353
*ELSET, ELSET=ELEM_898
898
*ORIENTATION, NAME=ORI_898, SYSTEM=RECTANGULAR
29.68844716, 43.55547878, -194.22448296, 30.28537626, 44.57056893, -193.44136889
3, 0.
*SHELL SECTION, ELSET=ELEM_898, COMPOSITE, ORIENTATION=ORI_898
1.20304656, 3, CFRP, 0.
** SOURCE_TET=596
*ELSET, ELSET=ELEM_899
899
*ORIENTATION, NAME=ORI_899, SYSTEM=RECTANGULAR
59.17520335, 55.25796553, -167.04621534, 59.71267727, 55.83322109, -165.87139500
3, 0.
*SHELL SECTION, ELSET=ELEM_899, COMPOSITE, ORIENTATION=ORI_899
1.20199263, 3, CFRP, 0.
** SOURCE_TET=2068
*ELSET, ELSET=ELEM_900
900
*ORIENTATION, NAME=ORI_900, SYSTEM=RECTANGULAR
61.11588448, 45.90922368, -173.14438423, 61.76312666, 46.48784505, -172.02801741
3, 0.
*SHELL SECTION, ELSET=ELEM_900, COMPOSITE, ORIENTATION=ORI_900
1.20214176, 3, CFRP, 0.
** SOURCE_TET=2210
*ELSET, ELSET=ELEM_901
901
*ORIENTATION, NAME=ORI_901, SYSTEM=RECTANGULAR
-88.92341529, 21.70137919, -147.46076105, -89.43872921, 21.77074264, -146.14560316
3, 0.
*SHELL SECTION, ELSET=ELEM_901, COMPOSITE, ORIENTATION=ORI_901
1.20138347, 3, CFRP, 0.
** SOURCE_TET=955
*ELSET, ELSET=ELEM_902
902
*ORIENTATION, NAME=ORI_902, SYSTEM=RECTANGULAR
-88.46893201, 8.37896816, -153.25478646, -89.05145809, 8.37438633, -151.96612732
3, 0.
*SHELL SECTION, ELSET=ELEM_902, COMPOSITE, ORIENTATION=ORI_902
1.20164323, 3, CFRP, 0.
** SOURCE_TET=2292
*ELSET, ELSET=ELEM_903
903
*ORIENTATION, NAME=ORI_903, SYSTEM=RECTANGULAR
-82.42521082, 6.34840465, -165.13309736, -83.18082228, 6.35388223, -163.93768056
3, 0.
*SHELL SECTION, ELSET=ELEM_903, COMPOSITE, ORIENTATION=ORI_903
1.20190763, 3, CFRP, 0.
** SOURCE_TET=1084
*ELSET, ELSET=ELEM_904
904
*ORIENTATION, NAME=ORI_904, SYSTEM=RECTANGULAR
-26.48212492, -31.26618304, -200.82936561, -27.28015860, -32.26296600, -200.22144624
3, 0.
*SHELL SECTION, ELSET=ELEM_904, COMPOSITE, ORIENTATION=ORI_904
1.20339179, 3, CFRP, 0.
** SOURCE_TET=2390
*ELSET, ELSET=ELEM_905
905
*ORIENTATION, NAME=ORI_905, SYSTEM=RECTANGULAR
-27.29700449, -24.03600173, -202.88839943, -28.22570747, -24.95746975, -202.35136362
3, 0.
*SHELL SECTION, ELSET=ELEM_905, COMPOSITE, ORIENTATION=ORI_905
1.20349050, 3, CFRP, 0.
** SOURCE_TET=1136
*ELSET, ELSET=ELEM_906
906
*ORIENTATION, NAME=ORI_906, SYSTEM=RECTANGULAR
-15.41048488, -38.18020900, -200.75225459, -15.85002588, -39.39554444, -200.17800423
3, 0.
*SHELL SECTION, ELSET=ELEM_906, COMPOSITE, ORIENTATION=ORI_906
1.20337439, 3, CFRP, 0.
** SOURCE_TET=896
*ELSET, ELSET=ELEM_907
907
*ORIENTATION, NAME=ORI_907, SYSTEM=RECTANGULAR
-18.44898023, -32.64903727, -202.32435242, -19.01033616, -33.82041476, -201.76510802
3, 0.
*SHELL SECTION, ELSET=ELEM_907, COMPOSITE, ORIENTATION=ORI_907
1.20345342, 3, CFRP, 0.
** SOURCE_TET=1603
*ELSET, ELSET=ELEM_908
908
*ORIENTATION, NAME=ORI_908, SYSTEM=RECTANGULAR
-8.24858387, -26.96253111, -205.79097885, -8.66732749, -28.25242738, -205.38995342
3, 0.
*SHELL SECTION, ELSET=ELEM_908, COMPOSITE, ORIENTATION=ORI_908
1.20362008, 3, CFRP, 0.
** SOURCE_TET=2175
*ELSET, ELSET=ELEM_909
909
*ORIENTATION, NAME=ORI_909, SYSTEM=RECTANGULAR
-14.34199951, -26.82752274, -205.06195638, -14.93598129, -28.02948674, -204.61199173
3, 0.
*SHELL SECTION, ELSET=ELEM_909, COMPOSITE, ORIENTATION=ORI_909
1.20362008, 3, CFRP, 0.
** SOURCE_TET=1949
*ELSET, ELSET=ELEM_910
910
*ORIENTATION, NAME=ORI_910, SYSTEM=RECTANGULAR
7.10572063, -78.52160078, -170.05067422, 7.24722242, -79.32776444, -168.89738441
3, 0.
*SHELL SECTION, ELSET=ELEM_910, COMPOSITE, ORIENTATION=ORI_910
1.20201671, 3, CFRP, 0.
** SOURCE_TET=443
*ELSET, ELSET=ELEM_911
911
*ORIENTATION, NAME=ORI_911, SYSTEM=RECTANGULAR
-37.62767254, -80.66380206, -152.26329646, -37.80943201, -81.21893303, -150.97535504
3, 0.
*SHELL SECTION, ELSET=ELEM_911, COMPOSITE, ORIENTATION=ORI_911
1.20148981, 3, CFRP, 0.
** SOURCE_TET=406
*ELSET, ELSET=ELEM_912
912
*ORIENTATION, NAME=ORI_912, SYSTEM=RECTANGULAR
34.82006688, -78.18354217, -159.64759691, 35.15420586, -78.77092743, -158.40528869
3, 0.
*SHELL SECTION, ELSET=ELEM_912, COMPOSITE, ORIENTATION=ORI_912
1.20179975, 3, CFRP, 0.
** SOURCE_TET=1751
*ELSET, ELSET=ELEM_913
913
*ORIENTATION, NAME=ORI_913, SYSTEM=RECTANGULAR
48.04499998, -70.76670821, -159.68706426, 48.48723511, -71.27820622, -158.44497012
3, 0.
*SHELL SECTION, ELSET=ELEM_913, COMPOSITE, ORIENTATION=ORI_913
1.20166552, 3, CFRP, 0.
** SOURCE_TET=1969
*ELSET, ELSET=ELEM_914
914
*ORIENTATION, NAME=ORI_914, SYSTEM=RECTANGULAR
67.05760351, 36.75912043, -172.99669529, 67.76229374, 37.26518404, -171.87986437
3, 0.
*SHELL SECTION, ELSET=ELEM_914, COMPOSITE, ORIENTATION=ORI_914
1.20214224, 3, CFRP, 0.
** SOURCE_TET=2419
*ELSET, ELSET=ELEM_915
915
*ORIENTATION, NAME=ORI_915, SYSTEM=RECTANGULAR
27.49938226, 86.31411584, -150.20522280, 27.59055215, 86.86109759, -148.90426200
3, 0.
*SHELL SECTION, ELSET=ELEM_915, COMPOSITE, ORIENTATION=ORI_915
1.20143235, 3, CFRP, 0.
** SOURCE_TET=2087
*ELSET, ELSET=ELEM_916
916
*ORIENTATION, NAME=ORI_916, SYSTEM=RECTANGULAR
30.68352452, -85.42670523, -148.69216518, 30.93172191, -85.93382857, -147.39554497
3, 0.
*SHELL SECTION, ELSET=ELEM_916, COMPOSITE, ORIENTATION=ORI_916
1.20139492, 3, CFRP, 0.
** SOURCE_TET=2209
*ELSET, ELSET=ELEM_917
917
*ORIENTATION, NAME=ORI_917, SYSTEM=RECTANGULAR
-79.36914267, -13.39030653, -168.04878131, -80.16089852, -13.58786524, -166.89375178
3, 0.
*SHELL SECTION, ELSET=ELEM_917, COMPOSITE, ORIENTATION=ORI_917
1.20198762, 3, CFRP, 0.
** SOURCE_TET=1664
*ELSET, ELSET=ELEM_918
918
*ORIENTATION, NAME=ORI_918, SYSTEM=RECTANGULAR
-75.24338600, -52.55634900, -147.45302491, -75.63988081, -52.92182947, -146.14565508
3, 0.
*SHELL SECTION, ELSET=ELEM_918, COMPOSITE, ORIENTATION=ORI_918
1.20149696, 3, CFRP, 0.
** SOURCE_TET=2463
*ELSET, ELSET=ELEM_919
919
*ORIENTATION, NAME=ORI_919, SYSTEM=RECTANGULAR
-82.45776157, -47.01647816, -139.07334778, -82.78926470, -47.27332739, -137.72274268
3, 0.
*SHELL SECTION, ELSET=ELEM_919, COMPOSITE, ORIENTATION=ORI_919
1.20121622, 3, CFRP, 0.
** SOURCE_TET=99
*ELSET, ELSET=ELEM_920
920
*ORIENTATION, NAME=ORI_920, SYSTEM=RECTANGULAR
72.42461133, -49.54695037, -154.99449763, 72.94919885, -49.82037357, -153.70995581
3, 0.
*SHELL SECTION, ELSET=ELEM_920, COMPOSITE, ORIENTATION=ORI_920
1.20167494, 3, CFRP, 0.
** SOURCE_TET=1959
*ELSET, ELSET=ELEM_921
921
*ORIENTATION, NAME=ORI_921, SYSTEM=RECTANGULAR
64.04777690, -47.13854278, -168.83321055, 64.76451981, -47.57487884, -167.69483871
3, 0.
*SHELL SECTION, ELSET=ELEM_921, COMPOSITE, ORIENTATION=ORI_921
1.20199335, 3, CFRP, 0.
** SOURCE_TET=1260
*ELSET, ELSET=ELEM_922
922
*ORIENTATION, NAME=ORI_922, SYSTEM=RECTANGULAR
-31.65309454, -1.80330028, -204.64151608, -32.98125205, -1.89797962, -204.16503581
3, 0.
*SHELL SECTION, ELSET=ELEM_922, COMPOSITE, ORIENTATION=ORI_922
1.20362008, 3, CFRP, 0.
** SOURCE_TET=1776
*ELSET, ELSET=ELEM_923
923
*ORIENTATION, NAME=ORI_923, SYSTEM=RECTANGULAR
-29.83164593, 3.58466471, -205.21577775, -31.17033513, 3.67406409, -204.76865476
3, 0.
*SHELL SECTION, ELSET=ELEM_923, COMPOSITE, ORIENTATION=ORI_923
1.20362008, 3, CFRP, 0.
** SOURCE_TET=1947
*ELSET, ELSET=ELEM_924
924
*ORIENTATION, NAME=ORI_924, SYSTEM=RECTANGULAR
68.25022531, -34.11952940, -173.12248191, 69.09596501, -34.43280424, -172.03317789
3, 0.
*SHELL SECTION, ELSET=ELEM_924, COMPOSITE, ORIENTATION=ORI_924
1.20216990, 3, CFRP, 0.
** SOURCE_TET=1994
*ELSET, ELSET=ELEM_925
925
*ORIENTATION, NAME=ORI_925, SYSTEM=RECTANGULAR
-43.25517788, 74.53557130, -159.28890510, -43.69300366, 75.12419187, -158.07984166
3, 0.
*SHELL SECTION, ELSET=ELEM_925, COMPOSITE, ORIENTATION=ORI_925
1.20179677, 3, CFRP, 0.
** SOURCE_TET=930
*ELSET, ELSET=ELEM_926
926
*ORIENTATION, NAME=ORI_926, SYSTEM=RECTANGULAR
-62.29508946, 57.29359987, -161.76300854, -62.86059246, 57.71294551, -160.53648680
3, 0.
*SHELL SECTION, ELSET=ELEM_926, COMPOSITE, ORIENTATION=ORI_926
1.20188379, 3, CFRP, 0.
** SOURCE_TET=1569
*ELSET, ELSET=ELEM_927
927
*ORIENTATION, NAME=ORI_927, SYSTEM=RECTANGULAR
-27.33520338, 85.30464284, -152.35356441, -27.57650935, 85.83467439, -151.06482938
3, 0.
*SHELL SECTION, ELSET=ELEM_927, COMPOSITE, ORIENTATION=ORI_927
1.20161843, 3, CFRP, 0.
** SOURCE_TET=1736
*ELSET, ELSET=ELEM_928
928
*ORIENTATION, NAME=ORI_928, SYSTEM=RECTANGULAR
-37.11071990, 82.18587096, -151.27422919, -37.39832559, 82.69191266, -149.98535186
3, 0.
*SHELL SECTION, ELSET=ELEM_928, COMPOSITE, ORIENTATION=ORI_928
1.20159554, 3, CFRP, 0.
** SOURCE_TET=2635
*ELSET, ELSET=ELEM_929
929
*ORIENTATION, NAME=ORI_929, SYSTEM=RECTANGULAR
-21.88039864, 80.43416157, -164.03079901, -22.13175936, 81.15494746, -162.84030101
3, 0.
*SHELL SECTION, ELSET=ELEM_929, COMPOSITE, ORIENTATION=ORI_929
1.20198286, 3, CFRP, 0.
** SOURCE_TET=1970
*ELSET, ELSET=ELEM_930
930
*ORIENTATION, NAME=ORI_930, SYSTEM=RECTANGULAR
-80.08495578, 48.17205233, -142.78766544, -80.53350141, 48.33689909, -141.45663864
3, 0.
*SHELL SECTION, ELSET=ELEM_930, COMPOSITE, ORIENTATION=ORI_930
1.20128441, 3, CFRP, 0.
** SOURCE_TET=1682
*ELSET, ELSET=ELEM_931
931
*ORIENTATION, NAME=ORI_931, SYSTEM=RECTANGULAR
-12.39757844, 81.67439043, -165.11047967, -12.58393628, 82.42152498, -163.92428377
3, 0.
*SHELL SECTION, ELSET=ELEM_931, COMPOSITE, ORIENTATION=ORI_931
1.20200777, 3, CFRP, 0.
** SOURCE_TET=2116
*ELSET, ELSET=ELEM_932
932
*ORIENTATION, NAME=ORI_932, SYSTEM=RECTANGULAR
21.67534118, 37.50575074, -199.52077014, 22.26331527, 38.63336515, -198.90208427
3, 0.
*SHELL SECTION, ELSET=ELEM_932, COMPOSITE, ORIENTATION=ORI_932
1.20325828, 3, CFRP, 0.
** SOURCE_TET=1025
*ELSET, ELSET=ELEM_933
933
*ORIENTATION, NAME=ORI_933, SYSTEM=RECTANGULAR
4.94276801, 27.71245256, -205.58814217, 5.13765552, 29.03585566, -205.12920524
3, 0.
*SHELL SECTION, ELSET=ELEM_933, COMPOSITE, ORIENTATION=ORI_933
1.20362008, 3, CFRP, 0.
** SOURCE_TET=2421
*ELSET, ELSET=ELEM_934
934
*ORIENTATION, NAME=ORI_934, SYSTEM=RECTANGULAR
-9.02258697, 32.70133250, -203.89230998, -9.40264325, 33.98359360, -203.43256689
3, 0.
*SHELL SECTION, ELSET=ELEM_934, COMPOSITE, ORIENTATION=ORI_934
1.20357585, 3, CFRP, 0.
** SOURCE_TET=2481
*ELSET, ELSET=ELEM_935
935
*ORIENTATION, NAME=ORI_935, SYSTEM=RECTANGULAR
-57.23932354, -61.24753310, -163.38692657, -57.67724544, -61.83646644, -162.17805025
3, 0.
*SHELL SECTION, ELSET=ELEM_935, COMPOSITE, ORIENTATION=ORI_935
1.20191622, 3, CFRP, 0.
** SOURCE_TET=1938
*ELSET, ELSET=ELEM_936
936
*ORIENTATION, NAME=ORI_936, SYSTEM=RECTANGULAR
-78.53075949, -3.18340105, -170.86292393, -79.37672811, -3.27375023, -169.73324515
3, 0.
*SHELL SECTION, ELSET=ELEM_936, COMPOSITE, ORIENTATION=ORI_936
1.20215011, 3, CFRP, 0.
